Surface No.;Grid;Grid Point Coordinates [m];;;;Equivalent Stresses - Rankine [N/mm^2 ];;;;
;Point No.;X;Y;Z;;σ_eqv,Rankine,Max;σ_eqv,Rankine,+;σ_eqv,Rankine,-;σ_eqv,Rankine,m;Surface Comment
1;1;0.000;0.000;-3.600;;3.936;3.936;1.444;1.306;
1;2;0.500;0.000;-3.600;;2.144;2.144;0.752;0.764;
1;3;1.000;0.000;-3.600;;0.972;0.972;0.310;0.445;
1;4;1.500;0.000;-3.600;;0.697;0.297;0.697;0.262;
1;5;2.000;0.000;-3.600;;1.390;1.180;1.390;0.109;
1;6;2.500;0.000;-3.600;;2.811;2.811;2.787;0.028;
1;7;3.000;0.000;-3.600;;3.341;3.291;3.193;0.309;
1;8;3.500;0.000;-3.600;;0.536;0.072;0.536;0.281;
1;9;4.000;0.000;-3.600;;0.880;0.488;0.880;0.196;
1;10;4.500;0.000;-3.600;;1.165;0.845;1.165;0.161;
1;11;5.000;0.000;-3.600;;1.569;1.297;1.569;0.137;
1;12;5.500;0.000;-3.600;;2.515;2.299;2.515;0.108;
1;13;6.000;0.000;-3.600;;3.117;2.780;3.117;0.187;
1;14;6.500;0.000;-3.600;;1.723;1.284;1.723;0.221;
1;15;7.000;0.000;-3.600;;1.575;1.200;1.575;0.188;
1;16;7.500;0.000;-3.600;;1.555;1.195;1.555;0.180;
1;17;8.000;0.000;-3.600;;1.626;1.253;1.626;0.187;
1;18;8.500;0.000;-3.600;;1.849;1.417;1.849;0.216;
1;19;9.000;0.000;-3.600;;3.228;2.863;3.228;0.192;
1;20;9.500;0.000;-3.600;;2.623;2.379;2.623;0.122;
1;21;10.000;0.000;-3.600;;1.736;1.447;1.736;0.145;
1;22;10.500;0.000;-3.600;;1.350;1.021;1.350;0.166;
1;23;11.000;0.000;-3.600;;1.066;0.670;1.066;0.199;
1;24;11.500;0.000;-3.600;;0.671;0.110;0.671;0.283;
1;25;12.000;0.000;-3.600;;3.361;3.280;3.218;0.311;
1;26;12.500;0.000;-3.600;;2.715;2.670;2.715;0.034;
1;27;13.000;0.000;-3.600;;1.166;0.938;1.166;0.122;
1;28;13.500;0.000;-3.600;;0.474;0.217;0.474;0.213;
1;29;14.000;0.000;-3.600;;0.852;0.852;0.278;0.353;
1;30;14.500;0.000;-3.600;;2.099;2.099;0.850;0.656;
1;31;15.000;0.000;-3.600;;3.901;3.901;1.566;1.182;
1;32;0.000;0.500;-3.600;;1.459;1.429;1.459;0.096;
1;33;0.500;0.500;-3.600;;1.217;1.217;1.062;0.246;
1;34;1.000;0.500;-3.600;;0.842;0.842;0.752;0.286;
1;35;1.500;0.500;-3.600;;0.920;0.416;0.920;0.258;
1;36;2.000;0.500;-3.600;;1.610;1.208;1.610;0.203;
1;37;2.500;0.500;-3.600;;2.261;1.906;2.261;0.178;
1;38;3.000;0.500;-3.600;;2.052;1.796;2.052;0.169;
1;39;3.500;0.500;-3.600;;0.737;0.424;0.737;0.178;
1;40;4.000;0.500;-3.600;;0.922;0.564;0.922;0.184;
1;41;4.500;0.500;-3.600;;1.196;0.859;1.196;0.169;
1;42;5.000;0.500;-3.600;;1.586;1.266;1.586;0.160;
1;43;5.500;0.500;-3.600;;2.180;1.858;2.180;0.162;
1;44;6.000;0.500;-3.600;;2.513;2.190;2.513;0.167;
1;45;6.500;0.500;-3.600;;1.752;1.403;1.752;0.179;
1;46;7.000;0.500;-3.600;;1.612;1.241;1.612;0.187;
1;47;7.500;0.500;-3.600;;1.586;1.215;1.586;0.186;
1;48;8.000;0.500;-3.600;;1.660;1.286;1.660;0.188;
1;49;8.500;0.500;-3.600;;1.848;1.492;1.848;0.181;
1;50;9.000;0.500;-3.600;;2.623;2.288;2.623;0.170;
1;51;9.500;0.500;-3.600;;2.314;1.981;2.314;0.166;
1;52;10.000;0.500;-3.600;;1.761;1.430;1.761;0.165;
1;53;10.500;0.500;-3.600;;1.393;1.047;1.393;0.173;
1;54;11.000;0.500;-3.600;;1.122;0.757;1.122;0.186;
1;55;11.500;0.500;-3.600;;0.909;0.595;0.909;0.176;
1;56;12.000;0.500;-3.600;;2.170;1.937;2.170;0.157;
1;57;12.500;0.500;-3.600;;2.110;1.822;2.110;0.153;
1;58;13.000;0.500;-3.600;;1.223;0.910;1.223;0.159;
1;59;13.500;0.500;-3.600;;0.623;0.312;0.623;0.196;
1;60;14.000;0.500;-3.600;;0.638;0.638;0.507;0.252;
1;61;14.500;0.500;-3.600;;1.129;1.129;0.885;0.240;
1;62;15.000;0.500;-3.600;;1.557;1.557;1.471;0.113;
1;63;0.000;1.000;-3.600;;0.687;0.559;0.687;0.068;
1;64;0.500;1.000;-3.600;;0.860;0.723;0.860;0.119;
1;65;1.000;1.000;-3.600;;0.865;0.712;0.865;0.077;
1;66;1.500;1.000;-3.600;;0.954;0.549;0.954;0.206;
1;67;2.000;1.000;-3.600;;1.653;0.943;1.653;0.355;
1;68;2.500;1.000;-3.600;;1.646;1.222;1.646;0.219;
1;69;3.000;1.000;-3.600;;1.491;1.211;1.491;0.151;
1;70;3.500;1.000;-3.600;;0.951;0.669;0.951;0.154;
1;71;4.000;1.000;-3.600;;0.977;0.671;0.977;0.159;
1;72;4.500;1.000;-3.600;;1.213;0.887;1.213;0.165;
1;73;5.000;1.000;-3.600;;1.580;1.244;1.580;0.168;
1;74;5.500;1.000;-3.600;;1.983;1.644;1.983;0.170;
1;75;6.000;1.000;-3.600;;2.203;1.864;2.203;0.170;
1;76;6.500;1.000;-3.600;;1.825;1.481;1.825;0.174;
1;77;7.000;1.000;-3.600;;1.664;1.309;1.664;0.179;
1;78;7.500;1.000;-3.600;;1.624;1.261;1.624;0.182;
1;79;8.000;1.000;-3.600;;1.710;1.351;1.710;0.180;
1;80;8.500;1.000;-3.600;;1.912;1.561;1.912;0.176;
1;81;9.000;1.000;-3.600;;2.325;1.979;2.325;0.173;
1;82;9.500;1.000;-3.600;;2.136;1.789;2.136;0.173;
1;83;10.000;1.000;-3.600;;1.765;1.421;1.765;0.172;
1;84;10.500;1.000;-3.600;;1.426;1.089;1.426;0.169;
1;85;11.000;1.000;-3.600;;1.204;0.886;1.204;0.162;
1;86;11.500;1.000;-3.600;;1.174;0.885;1.174;0.152;
1;87;12.000;1.000;-3.600;;1.713;1.437;1.713;0.144;
1;88;12.500;1.000;-3.600;;1.655;1.374;1.655;0.145;
1;89;13.000;1.000;-3.600;;1.100;0.816;1.100;0.147;
1;90;13.500;1.000;-3.600;;0.523;0.336;0.523;0.148;
1;91;14.000;1.000;-3.600;;0.441;0.395;0.441;0.137;
1;92;14.500;1.000;-3.600;;0.614;0.614;0.575;0.104;
1;93;15.000;1.000;-3.600;;0.715;0.626;0.715;0.075;
1;94;0.000;1.500;-3.600;;0.567;0.412;0.567;0.093;
1;95;0.500;1.500;-3.600;;0.592;0.521;0.592;0.082;
1;96;1.000;1.500;-3.600;;0.570;0.570;0.479;0.135;
1;98;2.000;1.500;-3.600;;0.466;0.421;0.466;0.052;
1;99;2.500;1.500;-3.600;;0.985;0.859;0.985;0.082;
1;100;3.000;1.500;-3.600;;1.208;0.950;1.208;0.140;
1;101;3.500;1.500;-3.600;;0.980;0.719;0.980;0.135;
1;102;4.000;1.500;-3.600;;1.029;0.739;1.029;0.148;
1;103;4.500;1.500;-3.600;;1.231;0.915;1.231;0.159;
1;104;5.000;1.500;-3.600;;1.542;1.209;1.542;0.167;
1;105;5.500;1.500;-3.600;;1.852;1.510;1.852;0.172;
1;106;6.000;1.500;-3.600;;2.002;1.655;2.002;0.174;
1;107;6.500;1.500;-3.600;;1.822;1.471;1.822;0.176;
1;108;7.000;1.500;-3.600;;1.705;1.349;1.705;0.179;
1;109;7.500;1.500;-3.600;;1.671;1.311;1.671;0.180;
1;110;8.000;1.500;-3.600;;1.752;1.393;1.752;0.180;
1;111;8.500;1.500;-3.600;;1.911;1.556;1.911;0.178;
1;112;9.000;1.500;-3.600;;2.130;1.778;2.130;0.176;
1;113;9.500;1.500;-3.600;;2.012;1.662;2.012;0.175;
1;114;10.000;1.500;-3.600;;1.738;1.395;1.738;0.172;
1;115;10.500;1.500;-3.600;;1.463;1.134;1.463;0.165;
1;116;11.000;1.500;-3.600;;1.293;0.984;1.293;0.156;
1;117;11.500;1.500;-3.600;;1.267;0.979;1.267;0.146;
1;118;12.000;1.500;-3.600;;1.478;1.203;1.478;0.139;
1;119;12.500;1.500;-3.600;;1.377;1.129;1.377;0.126;
1;120;13.000;1.500;-3.600;;0.933;0.720;0.933;0.112;
1;121;13.500;1.500;-3.600;;0.405;0.387;0.405;0.096;
1;122;14.000;1.500;-3.600;;0.342;0.342;0.303;0.082;
1;123;14.500;1.500;-3.600;;0.378;0.378;0.367;0.033;
1;124;15.000;1.500;-3.600;;0.446;0.353;0.446;0.090;
1;125;0.000;2.000;-3.600;;0.556;0.415;0.556;0.091;
1;126;0.500;2.000;-3.600;;0.439;0.439;0.432;0.063;
1;127;1.000;2.000;-3.600;;0.360;0.360;0.252;0.210;
1;128;1.500;2.000;-3.600;;0.506;0.337;0.506;0.094;
1;129;2.000;2.000;-3.600;;0.579;0.490;0.579;0.053;
1;130;2.500;2.000;-3.600;;0.886;0.747;0.886;0.071;
1;131;3.000;2.000;-3.600;;1.014;0.814;1.014;0.100;
1;132;3.500;2.000;-3.600;;0.932;0.676;0.932;0.128;
1;133;4.000;2.000;-3.600;;1.021;0.732;1.021;0.145;
1;134;4.500;2.000;-3.600;;1.233;0.916;1.233;0.159;
1;135;5.000;2.000;-3.600;;1.531;1.194;1.531;0.169;
1;136;5.500;2.000;-3.600;;1.809;1.461;1.809;0.174;
1;137;6.000;2.000;-3.600;;1.930;1.575;1.930;0.177;
1;138;6.500;2.000;-3.600;;1.810;1.452;1.810;0.179;
1;139;7.000;2.000;-3.600;;1.721;1.359;1.721;0.181;
1;140;7.500;2.000;-3.600;;1.697;1.332;1.697;0.182;
1;141;8.000;2.000;-3.600;;1.773;1.409;1.773;0.182;
1;142;8.500;2.000;-3.600;;1.907;1.546;1.907;0.181;
1;143;9.000;2.000;-3.600;;2.061;1.702;2.061;0.179;
1;144;9.500;2.000;-3.600;;1.966;1.611;1.966;0.177;
1;145;10.000;2.000;-3.600;;1.728;1.382;1.728;0.173;
1;146;10.500;2.000;-3.600;;1.483;1.152;1.483;0.165;
1;147;11.000;2.000;-3.600;;1.329;1.017;1.329;0.156;
1;148;11.500;2.000;-3.600;;1.288;0.996;1.288;0.146;
1;149;12.000;2.000;-3.600;;1.399;1.123;1.399;0.138;
1;150;12.500;2.000;-3.600;;1.283;1.046;1.283;0.118;
1;151;13.000;2.000;-3.600;;0.871;0.687;0.871;0.092;
1;152;13.500;2.000;-3.600;;0.425;0.425;0.366;0.058;
1;153;14.000;2.000;-3.600;;0.371;0.371;0.272;0.050;
1;154;14.500;2.000;-3.600;;0.325;0.325;0.318;0.006;
1;155;15.000;2.000;-3.600;;0.407;0.331;0.407;0.094;
1;156;0.000;2.500;-3.600;;0.622;0.489;0.622;0.098;
1;157;0.500;2.500;-3.600;;0.513;0.513;0.442;0.044;
1;158;1.000;2.500;-3.600;;0.417;0.417;0.257;0.100;
1;159;1.500;2.500;-3.600;;0.448;0.339;0.448;0.082;
1;160;2.000;2.500;-3.600;;0.812;0.590;0.812;0.115;
1;161;2.500;2.500;-3.600;;1.025;0.789;1.025;0.126;
1;162;3.000;2.500;-3.600;;0.983;0.747;0.983;0.127;
1;163;3.500;2.500;-3.600;;0.844;0.568;0.844;0.141;
1;164;4.000;2.500;-3.600;;0.959;0.651;0.959;0.155;
1;165;4.500;2.500;-3.600;;1.216;0.883;1.216;0.167;
1;166;5.000;2.500;-3.600;;1.556;1.206;1.556;0.175;
1;167;5.500;2.500;-3.600;;1.865;1.507;1.865;0.180;
1;168;6.000;2.500;-3.600;;1.977;1.615;1.977;0.181;
1;169;6.500;2.500;-3.600;;1.813;1.446;1.813;0.184;
1;170;7.000;2.500;-3.600;;1.714;1.341;1.714;0.187;
1;171;7.500;2.500;-3.600;;1.691;1.315;1.691;0.188;
1;172;8.000;2.500;-3.600;;1.776;1.402;1.776;0.187;
1;173;8.500;2.500;-3.600;;1.925;1.556;1.925;0.185;
1;174;9.000;2.500;-3.600;;2.110;1.744;2.110;0.183;
1;175;9.500;2.500;-3.600;;2.007;1.644;2.007;0.182;
1;176;10.000;2.500;-3.600;;1.744;1.389;1.744;0.178;
1;177;10.500;2.500;-3.600;;1.476;1.135;1.476;0.171;
1;178;11.000;2.500;-3.600;;1.308;0.987;1.308;0.161;
1;179;11.500;2.500;-3.600;;1.273;0.974;1.273;0.151;
1;180;12.000;2.500;-3.600;;1.454;1.170;1.454;0.144;
1;181;12.500;2.500;-3.600;;1.372;1.116;1.372;0.130;
1;182;13.000;2.500;-3.600;;0.938;0.721;0.938;0.113;
1;183;13.500;2.500;-3.600;;0.415;0.413;0.415;0.095;
1;184;14.000;2.500;-3.600;;0.382;0.382;0.328;0.080;
1;185;14.500;2.500;-3.600;;0.367;0.367;0.362;0.029;
1;186;15.000;2.500;-3.600;;0.496;0.379;0.496;0.093;
1;187;0.000;3.000;-3.600;;0.742;0.623;0.742;0.085;
1;188;0.500;3.000;-3.600;;0.674;0.674;0.486;0.103;
1;189;1.000;3.000;-3.600;;0.468;0.468;0.231;0.123;
1;190;1.500;3.000;-3.600;;0.377;0.311;0.377;0.135;
1;191;2.000;3.000;-3.600;;0.820;0.539;0.820;0.152;
1;192;2.500;3.000;-3.600;;1.200;0.903;1.200;0.159;
1;193;3.000;3.000;-3.600;;1.083;0.806;1.083;0.157;
1;194;3.500;3.000;-3.600;;0.684;0.385;0.684;0.166;
1;195;4.000;3.000;-3.600;;0.847;0.504;0.847;0.174;
1;196;4.500;3.000;-3.600;;1.185;0.825;1.185;0.180;
1;197;5.000;3.000;-3.600;;1.608;1.242;1.608;0.184;
1;198;5.500;3.000;-3.600;;2.028;1.657;2.028;0.186;
1;199;6.000;3.000;-3.600;;2.171;1.799;2.171;0.186;
1;200;6.500;3.000;-3.600;;1.814;1.436;1.814;0.190;
1;201;7.000;3.000;-3.600;;1.679;1.289;1.679;0.195;
1;202;7.500;3.000;-3.600;;1.658;1.262;1.658;0.198;
1;203;8.000;3.000;-3.600;;1.756;1.367;1.756;0.196;
1;204;8.500;3.000;-3.600;;1.954;1.576;1.954;0.191;
1;205;9.000;3.000;-3.600;;2.299;1.925;2.299;0.187;
1;206;9.500;3.000;-3.600;;2.134;1.761;2.134;0.187;
1;207;10.000;3.000;-3.600;;1.776;1.407;1.776;0.184;
1;208;10.500;3.000;-3.600;;1.445;1.085;1.445;0.181;
1;209;11.000;3.000;-3.600;;1.229;0.891;1.229;0.172;
1;210;11.500;3.000;-3.600;;1.196;0.889;1.196;0.162;
1;211;12.000;3.000;-3.600;;1.678;1.383;1.678;0.153;
1;212;12.500;3.000;-3.600;;1.654;1.357;1.654;0.153;
1;213;13.000;3.000;-3.600;;1.110;0.815;1.110;0.153;
1;214;13.500;3.000;-3.600;;0.531;0.362;0.531;0.152;
1;215;14.000;3.000;-3.600;;0.434;0.391;0.434;0.138;
1;216;14.500;3.000;-3.600;;0.587;0.587;0.546;0.104;
1;217;15.000;3.000;-3.600;;0.750;0.650;0.750;0.079;
1;218;0.000;3.500;-3.600;;1.106;1.106;0.953;0.117;
1;219;0.500;3.500;-3.600;;0.974;0.974;0.516;0.237;
1;220;1.000;3.500;-3.600;;0.557;0.557;0.103;0.249;
1;221;1.500;3.500;-3.600;;0.376;0.183;0.376;0.205;
1;222;2.000;3.500;-3.600;;0.854;0.501;0.854;0.183;
1;223;2.500;3.500;-3.600;;1.538;1.193;1.538;0.182;
1;224;3.000;3.500;-3.600;;1.614;1.442;1.475;0.187;
1;225;3.500;3.500;-3.600;;0.367;0.302;0.367;0.201;
1;226;4.000;3.500;-3.600;;0.750;0.339;0.750;0.206;
1;227;4.500;3.500;-3.600;;1.147;0.767;1.147;0.191;
1;228;5.000;3.500;-3.600;;1.622;1.257;1.622;0.183;
1;229;5.500;3.500;-3.600;;2.267;1.896;2.267;0.185;
1;230;6.000;3.500;-3.600;;2.556;2.181;2.556;0.191;
1;231;6.500;3.500;-3.600;;1.743;1.342;1.743;0.204;
1;232;7.000;3.500;-3.600;;1.629;1.205;1.629;0.213;
1;233;7.500;3.500;-3.600;;1.621;1.200;1.621;0.210;
1;234;8.000;3.500;-3.600;;1.715;1.298;1.715;0.211;
1;235;8.500;3.500;-3.600;;1.928;1.532;1.928;0.202;
1;236;9.000;3.500;-3.600;;2.661;2.286;2.661;0.191;
1;237;9.500;3.500;-3.600;;2.317;1.943;2.317;0.187;
1;238;10.000;3.500;-3.600;;1.773;1.403;1.773;0.185;
1;239;10.500;3.500;-3.600;;1.408;1.027;1.408;0.191;
1;240;11.000;3.500;-3.600;;1.147;0.754;1.147;0.202;
1;241;11.500;3.500;-3.600;;0.958;0.624;0.958;0.189;
1;242;12.000;3.500;-3.600;;2.186;1.922;2.186;0.169;
1;243;12.500;3.500;-3.600;;2.116;1.802;2.116;0.164;
1;244;13.000;3.500;-3.600;;1.237;0.902;1.237;0.169;
1;245;13.500;3.500;-3.600;;0.628;0.313;0.628;0.206;
1;246;14.000;3.500;-3.600;;0.598;0.598;0.471;0.261;
1;247;14.500;3.500;-3.600;;1.092;1.092;0.818;0.247;
1;248;15.000;3.500;-3.600;;1.525;1.525;1.416;0.115;
1;249;0.000;4.000;-3.600;;2.474;2.474;0.460;1.153;
1;250;0.500;4.000;-3.600;;1.581;1.581;0.279;0.651;
1;251;1.000;4.000;-3.600;;0.657;0.657;0.072;0.363;
1;252;1.500;4.000;-3.600;;0.386;0.115;0.386;0.245;
1;253;2.000;4.000;-3.600;;0.856;0.495;0.856;0.182;
1;254;2.500;4.000;-3.600;;2.051;1.817;2.051;0.120;
1;255;3.000;4.000;-3.600;;2.862;2.831;2.388;0.268;
1;256;3.500;4.000;-3.600;;0.541;0.541;0.063;0.300;
1;257;4.000;4.000;-3.600;;0.662;0.238;0.662;0.221;
1;258;4.500;4.000;-3.600;;1.070;0.705;1.070;0.189;
1;259;5.000;4.000;-3.600;;1.568;1.242;1.568;0.167;
1;260;5.500;4.000;-3.600;;2.579;2.299;2.579;0.140;
1;261;6.000;4.000;-3.600;;3.269;2.865;3.269;0.228;
1;262;6.500;4.000;-3.600;;1.674;1.162;1.674;0.258;
1;263;7.000;4.000;-3.600;;1.580;1.137;1.580;0.221;
1;264;7.500;4.000;-3.600;;1.581;1.157;1.581;0.212;
1;265;8.000;4.000;-3.600;;1.667;1.235;1.667;0.217;
1;266;8.500;4.000;-3.600;;1.906;1.422;1.906;0.245;
1;267;9.000;4.000;-3.600;;3.339;2.922;3.339;0.223;
1;268;9.500;4.000;-3.600;;2.586;2.284;2.586;0.151;
1;269;10.000;4.000;-3.600;;1.738;1.397;1.738;0.171;
1;270;10.500;4.000;-3.600;;1.362;0.985;1.362;0.190;
1;271;11.000;4.000;-3.600;;1.077;0.636;1.077;0.221;
1;272;11.500;4.000;-3.600;;0.696;0.118;0.696;0.302;
1;273;12.000;4.000;-3.600;;3.355;3.262;3.237;0.312;
1;274;12.500;4.000;-3.600;;2.684;2.600;2.684;0.049;
1;275;13.000;4.000;-3.600;;1.175;0.916;1.175;0.140;
1;276;13.500;4.000;-3.600;;0.490;0.215;0.490;0.230;
1;277;14.000;4.000;-3.600;;0.839;0.839;0.231;0.371;
1;278;14.500;4.000;-3.600;;2.081;2.081;0.759;0.680;
1;279;15.000;4.000;-3.600;;3.740;3.740;1.309;1.218;
Extremes;1;0.000;0.000;-3.600;σ_eqv,Rankine,Max;3.936;3.936;1.444;1.306;
1;154;14.500;2.000;-3.600;σ_eqv,Rankine,Max;0.325;0.325;0.318;0.006;
1;1;0.000;0.000;-3.600;σ_eqv,Rankine,+;3.936;3.936;1.444;1.306;
1;8;3.500;0.000;-3.600;σ_eqv,Rankine,+;0.536;0.072;0.536;0.281;
1;267;9.000;4.000;-3.600;σ_eqv,Rankine,-;3.339;2.922;3.339;0.223;
1;256;3.500;4.000;-3.600;σ_eqv,Rankine,-;0.541;0.541;0.063;0.300;
1;1;0.000;0.000;-3.600;σ_eqv,Rankine,m;3.936;3.936;1.444;1.306;
1;154;14.500;2.000;-3.600;σ_eqv,Rankine,m;0.325;0.325;0.318;0.006;
Total;;;;;;3.936;3.936;3.339;1.306;
1;;;;;;0.325;0.072;0.063;0.006;
;;;;;;;;;;
;Total max/min values with corresponding values;;;;;;;;;
1;1;0.000;0.000;-3.600;σ_eqv,Rankine,Max;3.936;3.936;1.444;1.306;
1;154;14.500;2.000;-3.600;σ_eqv,Rankine,Max;0.325;0.325;0.318;0.006;
1;1;0.000;0.000;-3.600;σ_eqv,Rankine,+;3.936;3.936;1.444;1.306;
1;8;3.500;0.000;-3.600;σ_eqv,Rankine,+;0.536;0.072;0.536;0.281;
1;267;9.000;4.000;-3.600;σ_eqv,Rankine,-;3.339;2.922;3.339;0.223;
1;256;3.500;4.000;-3.600;σ_eqv,Rankine,-;0.541;0.541;0.063;0.300;
1;1;0.000;0.000;-3.600;σ_eqv,Rankine,m;3.936;3.936;1.444;1.306;
1;154;14.500;2.000;-3.600;σ_eqv,Rankine,m;0.325;0.325;0.318;0.006;
;;;;;;;;;;
Total;;;;;;3.936;3.936;3.339;1.306;
max/min;;;;;;0.325;0.072;0.063;0.006;
