Surface No.;Grid;Grid Point Coordinates [m];;;;Equivalent Stresses - Tresca [N/mm^2 ];;;;
;Point No.;X;Y;Z;;σ_eqv,Tresca,Max;σ_eqv,Tresca,+;σ_eqv,Tresca,-;σ_eqv,Tresca,m;Surface Comment
1;1;0.000;0.000;-3.600;;3.936;3.936;1.793;1.306;
1;2;0.500;0.000;-3.600;;2.144;2.144;0.882;0.764;
1;3;1.000;0.000;-3.600;;0.998;0.998;0.564;0.445;
1;4;1.500;0.000;-3.600;;0.814;0.547;0.814;0.262;
1;5;2.000;0.000;-3.600;;1.539;1.328;1.539;0.115;
1;6;2.500;0.000;-3.600;;2.872;2.855;2.872;0.028;
1;7;3.000;0.000;-3.600;;3.715;3.715;3.201;0.309;
1;8;3.500;0.000;-3.600;;0.577;0.072;0.577;0.281;
1;9;4.000;0.000;-3.600;;0.928;0.538;0.928;0.197;
1;10;4.500;0.000;-3.600;;1.181;0.859;1.181;0.163;
1;11;5.000;0.000;-3.600;;1.655;1.381;1.655;0.139;
1;12;5.500;0.000;-3.600;;2.556;2.324;2.556;0.117;
1;13;6.000;0.000;-3.600;;3.117;2.780;3.117;0.195;
1;14;6.500;0.000;-3.600;;1.723;1.284;1.723;0.221;
1;15;7.000;0.000;-3.600;;1.637;1.262;1.637;0.188;
1;16;7.500;0.000;-3.600;;1.566;1.200;1.566;0.183;
1;17;8.000;0.000;-3.600;;1.690;1.316;1.690;0.187;
1;18;8.500;0.000;-3.600;;1.849;1.417;1.849;0.216;
1;19;9.000;0.000;-3.600;;3.228;2.863;3.228;0.194;
1;20;9.500;0.000;-3.600;;2.658;2.399;2.658;0.130;
1;21;10.000;0.000;-3.600;;1.823;1.533;1.823;0.147;
1;22;10.500;0.000;-3.600;;1.367;1.035;1.367;0.168;
1;23;11.000;0.000;-3.600;;1.116;0.722;1.116;0.199;
1;24;11.500;0.000;-3.600;;0.691;0.147;0.691;0.283;
1;25;12.000;0.000;-3.600;;3.720;3.720;3.218;0.311;
1;26;12.500;0.000;-3.600;;2.803;2.716;2.803;0.065;
1;27;13.000;0.000;-3.600;;1.306;1.084;1.306;0.128;
1;28;13.500;0.000;-3.600;;0.564;0.405;0.564;0.219;
1;29;14.000;0.000;-3.600;;0.852;0.852;0.410;0.353;
1;30;14.500;0.000;-3.600;;2.099;2.099;0.926;0.656;
1;31;15.000;0.000;-3.600;;3.901;3.901;1.958;1.182;
1;32;0.000;0.500;-3.600;;1.459;1.429;1.459;0.186;
1;33;0.500;0.500;-3.600;;1.217;1.217;1.172;0.269;
1;34;1.000;0.500;-3.600;;1.171;0.907;1.171;0.350;
1;35;1.500;0.500;-3.600;;1.316;0.716;1.316;0.312;
1;36;2.000;0.500;-3.600;;1.802;1.439;1.802;0.203;
1;37;2.500;0.500;-3.600;;2.261;1.906;2.261;0.204;
1;38;3.000;0.500;-3.600;;2.204;2.024;2.204;0.169;
1;39;3.500;0.500;-3.600;;0.856;0.604;0.856;0.178;
1;40;4.000;0.500;-3.600;;1.024;0.685;1.024;0.184;
1;41;4.500;0.500;-3.600;;1.306;0.974;1.306;0.169;
1;42;5.000;0.500;-3.600;;1.672;1.352;1.672;0.160;
1;43;5.500;0.500;-3.600;;2.180;1.858;2.180;0.164;
1;44;6.000;0.500;-3.600;;2.513;2.190;2.513;0.167;
1;45;6.500;0.500;-3.600;;1.786;1.466;1.786;0.179;
1;46;7.000;0.500;-3.600;;1.699;1.344;1.699;0.187;
1;47;7.500;0.500;-3.600;;1.686;1.323;1.686;0.186;
1;48;8.000;0.500;-3.600;;1.743;1.381;1.743;0.188;
1;49;8.500;0.500;-3.600;;1.870;1.537;1.870;0.181;
1;50;9.000;0.500;-3.600;;2.623;2.288;2.623;0.170;
1;51;9.500;0.500;-3.600;;2.314;1.981;2.314;0.167;
1;52;10.000;0.500;-3.600;;1.858;1.528;1.858;0.165;
1;53;10.500;0.500;-3.600;;1.516;1.176;1.516;0.173;
1;54;11.000;0.500;-3.600;;1.238;0.890;1.238;0.186;
1;55;11.500;0.500;-3.600;;1.035;0.779;1.035;0.176;
1;56;12.000;0.500;-3.600;;2.333;2.172;2.333;0.157;
1;57;12.500;0.500;-3.600;;2.110;1.822;2.110;0.175;
1;58;13.000;0.500;-3.600;;1.427;1.087;1.427;0.175;
1;59;13.500;0.500;-3.600;;0.954;0.553;0.954;0.209;
1;60;14.000;0.500;-3.600;;0.719;0.638;0.719;0.279;
1;61;14.500;0.500;-3.600;;1.129;1.129;0.885;0.291;
1;62;15.000;0.500;-3.600;;1.557;1.557;1.471;0.210;
1;63;0.000;1.000;-3.600;;0.687;0.559;0.687;0.068;
1;64;0.500;1.000;-3.600;;0.880;0.723;0.880;0.190;
1;65;1.000;1.000;-3.600;;0.979;0.712;0.979;0.136;
1;66;1.500;1.000;-3.600;;1.334;0.871;1.334;0.237;
1;67;2.000;1.000;-3.600;;1.806;1.198;1.806;0.355;
1;68;2.500;1.000;-3.600;;1.801;1.328;1.801;0.251;
1;69;3.000;1.000;-3.600;;1.641;1.395;1.641;0.151;
1;70;3.500;1.000;-3.600;;1.163;0.957;1.163;0.154;
1;71;4.000;1.000;-3.600;;1.177;0.909;1.177;0.159;
1;72;4.500;1.000;-3.600;;1.423;1.114;1.423;0.165;
1;73;5.000;1.000;-3.600;;1.777;1.450;1.777;0.168;
1;74;5.500;1.000;-3.600;;2.143;1.809;2.143;0.170;
1;75;6.000;1.000;-3.600;;2.315;2.009;2.315;0.170;
1;76;6.500;1.000;-3.600;;2.003;1.700;2.003;0.174;
1;77;7.000;1.000;-3.600;;1.854;1.524;1.854;0.179;
1;78;7.500;1.000;-3.600;;1.822;1.477;1.822;0.182;
1;79;8.000;1.000;-3.600;;1.896;1.559;1.896;0.180;
1;80;8.500;1.000;-3.600;;2.080;1.766;2.080;0.176;
1;81;9.000;1.000;-3.600;;2.427;2.115;2.427;0.173;
1;82;9.500;1.000;-3.600;;2.298;1.959;2.298;0.173;
1;83;10.000;1.000;-3.600;;1.973;1.637;1.973;0.172;
1;84;10.500;1.000;-3.600;;1.653;1.331;1.653;0.169;
1;85;11.000;1.000;-3.600;;1.423;1.139;1.423;0.162;
1;86;11.500;1.000;-3.600;;1.407;1.190;1.407;0.152;
1;87;12.000;1.000;-3.600;;1.896;1.667;1.896;0.144;
1;88;12.500;1.000;-3.600;;1.848;1.559;1.848;0.154;
1;89;13.000;1.000;-3.600;;1.382;1.093;1.382;0.155;
1;90;13.500;1.000;-3.600;;0.878;0.571;0.878;0.161;
1;91;14.000;1.000;-3.600;;0.511;0.395;0.511;0.163;
1;92;14.500;1.000;-3.600;;0.614;0.614;0.575;0.130;
1;93;15.000;1.000;-3.600;;0.715;0.626;0.715;0.075;
1;94;0.000;1.500;-3.600;;0.567;0.412;0.567;0.093;
1;95;0.500;1.500;-3.600;;0.592;0.521;0.592;0.130;
1;96;1.000;1.500;-3.600;;0.581;0.570;0.581;0.166;
1;98;2.000;1.500;-3.600;;0.830;0.806;0.830;0.072;
1;99;2.500;1.500;-3.600;;1.334;1.224;1.334;0.092;
1;100;3.000;1.500;-3.600;;1.544;1.332;1.544;0.140;
1;101;3.500;1.500;-3.600;;1.298;1.101;1.298;0.135;
1;102;4.000;1.500;-3.600;;1.319;1.082;1.319;0.148;
1;103;4.500;1.500;-3.600;;1.535;1.251;1.535;0.159;
1;104;5.000;1.500;-3.600;;1.871;1.555;1.871;0.167;
1;105;5.500;1.500;-3.600;;2.190;1.865;2.190;0.172;
1;106;6.000;1.500;-3.600;;2.315;1.999;2.315;0.174;
1;107;6.500;1.500;-3.600;;2.139;1.825;2.139;0.176;
1;108;7.000;1.500;-3.600;;2.001;1.677;2.001;0.179;
1;109;7.500;1.500;-3.600;;1.959;1.627;1.959;0.180;
1;110;8.000;1.500;-3.600;;2.044;1.715;2.044;0.180;
1;111;8.500;1.500;-3.600;;2.221;1.900;2.221;0.178;
1;112;9.000;1.500;-3.600;;2.433;2.113;2.433;0.176;
1;113;9.500;1.500;-3.600;;2.346;2.015;2.346;0.175;
1;114;10.000;1.500;-3.600;;2.071;1.744;2.071;0.172;
1;115;10.500;1.500;-3.600;;1.781;1.478;1.781;0.165;
1;116;11.000;1.500;-3.600;;1.605;1.340;1.605;0.156;
1;117;11.500;1.500;-3.600;;1.611;1.378;1.611;0.146;
1;118;12.000;1.500;-3.600;;1.841;1.610;1.841;0.139;
1;119;12.500;1.500;-3.600;;1.763;1.545;1.763;0.126;
1;120;13.000;1.500;-3.600;;1.305;1.134;1.305;0.112;
1;121;13.500;1.500;-3.600;;0.734;0.628;0.734;0.096;
1;122;14.000;1.500;-3.600;;0.342;0.342;0.303;0.082;
1;123;14.500;1.500;-3.600;;0.378;0.378;0.367;0.045;
1;124;15.000;1.500;-3.600;;0.446;0.353;0.446;0.090;
1;125;0.000;2.000;-3.600;;0.556;0.415;0.556;0.094;
1;126;0.500;2.000;-3.600;;0.439;0.439;0.435;0.063;
1;127;1.000;2.000;-3.600;;0.389;0.360;0.389;0.210;
1;128;1.500;2.000;-3.600;;0.627;0.467;0.627;0.099;
1;129;2.000;2.000;-3.600;;1.062;0.932;1.062;0.083;
1;130;2.500;2.000;-3.600;;1.372;1.294;1.372;0.071;
1;131;3.000;2.000;-3.600;;1.446;1.293;1.446;0.100;
1;132;3.500;2.000;-3.600;;1.312;1.120;1.312;0.128;
1;133;4.000;2.000;-3.600;;1.369;1.133;1.369;0.145;
1;134;4.500;2.000;-3.600;;1.594;1.313;1.594;0.159;
1;135;5.000;2.000;-3.600;;1.929;1.615;1.929;0.169;
1;136;5.500;2.000;-3.600;;2.227;1.901;2.227;0.174;
1;137;6.000;2.000;-3.600;;2.326;2.004;2.326;0.177;
1;138;6.500;2.000;-3.600;;2.195;1.872;2.195;0.179;
1;139;7.000;2.000;-3.600;;2.073;1.744;2.073;0.181;
1;140;7.500;2.000;-3.600;;2.035;1.702;2.035;0.182;
1;141;8.000;2.000;-3.600;;2.124;1.791;2.124;0.182;
1;142;8.500;2.000;-3.600;;2.287;1.959;2.287;0.181;
1;143;9.000;2.000;-3.600;;2.446;2.119;2.446;0.179;
1;144;9.500;2.000;-3.600;;2.373;2.041;2.373;0.177;
1;145;10.000;2.000;-3.600;;2.120;1.795;2.120;0.173;
1;146;10.500;2.000;-3.600;;1.848;1.549;1.848;0.165;
1;147;11.000;2.000;-3.600;;1.693;1.426;1.693;0.156;
1;148;11.500;2.000;-3.600;;1.694;1.453;1.694;0.146;
1;149;12.000;2.000;-3.600;;1.837;1.604;1.837;0.138;
1;150;12.500;2.000;-3.600;;1.739;1.547;1.739;0.118;
1;151;13.000;2.000;-3.600;;1.284;1.165;1.284;0.092;
1;152;13.500;2.000;-3.600;;0.695;0.676;0.695;0.058;
1;153;14.000;2.000;-3.600;;0.371;0.371;0.272;0.050;
1;154;14.500;2.000;-3.600;;0.325;0.325;0.318;0.007;
1;155;15.000;2.000;-3.600;;0.407;0.331;0.407;0.094;
1;156;0.000;2.500;-3.600;;0.622;0.489;0.622;0.098;
1;157;0.500;2.500;-3.600;;0.513;0.513;0.442;0.044;
1;158;1.000;2.500;-3.600;;0.446;0.446;0.416;0.100;
1;159;1.500;2.500;-3.600;;0.729;0.641;0.729;0.082;
1;160;2.000;2.500;-3.600;;1.235;1.014;1.235;0.120;
1;161;2.500;2.500;-3.600;;1.485;1.277;1.485;0.126;
1;162;3.000;2.500;-3.600;;1.386;1.219;1.386;0.127;
1;163;3.500;2.500;-3.600;;1.209;1.005;1.209;0.141;
1;164;4.000;2.500;-3.600;;1.298;1.040;1.298;0.155;
1;165;4.500;2.500;-3.600;;1.573;1.269;1.573;0.167;
1;166;5.000;2.500;-3.600;;1.941;1.609;1.941;0.175;
1;167;5.500;2.500;-3.600;;2.262;1.923;2.262;0.180;
1;168;6.000;2.500;-3.600;;2.351;2.022;2.351;0.181;
1;169;6.500;2.500;-3.600;;2.177;1.847;2.177;0.184;
1;170;7.000;2.500;-3.600;;2.046;1.705;2.046;0.187;
1;171;7.500;2.500;-3.600;;2.013;1.665;2.013;0.188;
1;172;8.000;2.500;-3.600;;2.108;1.764;2.108;0.187;
1;173;8.500;2.500;-3.600;;2.284;1.950;2.284;0.185;
1;174;9.000;2.500;-3.600;;2.469;2.136;2.469;0.183;
1;175;9.500;2.500;-3.600;;2.385;2.041;2.385;0.182;
1;176;10.000;2.500;-3.600;;2.108;1.771;2.108;0.178;
1;177;10.500;2.500;-3.600;;1.821;1.508;1.821;0.171;
1;178;11.000;2.500;-3.600;;1.653;1.378;1.653;0.161;
1;179;11.500;2.500;-3.600;;1.661;1.418;1.661;0.151;
1;180;12.000;2.500;-3.600;;1.871;1.631;1.871;0.144;
1;181;12.500;2.500;-3.600;;1.797;1.574;1.797;0.130;
1;182;13.000;2.500;-3.600;;1.336;1.164;1.336;0.113;
1;183;13.500;2.500;-3.600;;0.764;0.665;0.764;0.095;
1;184;14.000;2.500;-3.600;;0.382;0.382;0.328;0.080;
1;185;14.500;2.500;-3.600;;0.367;0.367;0.362;0.037;
1;186;15.000;2.500;-3.600;;0.496;0.379;0.496;0.093;
1;187;0.000;3.000;-3.600;;0.742;0.623;0.742;0.085;
1;188;0.500;3.000;-3.600;;0.674;0.674;0.486;0.112;
1;189;1.000;3.000;-3.600;;0.468;0.468;0.268;0.123;
1;190;1.500;3.000;-3.600;;0.591;0.481;0.591;0.135;
1;191;2.000;3.000;-3.600;;1.083;0.814;1.083;0.157;
1;192;2.500;3.000;-3.600;;1.465;1.181;1.465;0.163;
1;193;3.000;3.000;-3.600;;1.386;1.204;1.386;0.157;
1;194;3.500;3.000;-3.600;;0.981;0.766;0.981;0.166;
1;195;4.000;3.000;-3.600;;1.125;0.814;1.125;0.174;
1;196;4.500;3.000;-3.600;;1.476;1.132;1.476;0.180;
1;197;5.000;3.000;-3.600;;1.895;1.537;1.895;0.184;
1;198;5.500;3.000;-3.600;;2.287;1.924;2.287;0.186;
1;199;6.000;3.000;-3.600;;2.402;2.069;2.402;0.186;
1;200;6.500;3.000;-3.600;;2.076;1.740;2.076;0.190;
1;201;7.000;3.000;-3.600;;1.924;1.558;1.924;0.195;
1;202;7.500;3.000;-3.600;;1.901;1.524;1.901;0.198;
1;203;8.000;3.000;-3.600;;2.000;1.635;2.000;0.196;
1;204;8.500;3.000;-3.600;;2.207;1.867;2.207;0.191;
1;205;9.000;3.000;-3.600;;2.513;2.176;2.513;0.187;
1;206;9.500;3.000;-3.600;;2.373;2.010;2.373;0.187;
1;207;10.000;3.000;-3.600;;2.031;1.671;2.031;0.184;
1;208;10.500;3.000;-3.600;;1.706;1.363;1.706;0.181;
1;209;11.000;3.000;-3.600;;1.496;1.195;1.496;0.172;
1;210;11.500;3.000;-3.600;;1.508;1.275;1.508;0.162;
1;211;12.000;3.000;-3.600;;1.967;1.721;1.967;0.153;
1;212;12.500;3.000;-3.600;;1.919;1.616;1.919;0.160;
1;213;13.000;3.000;-3.600;;1.430;1.134;1.430;0.158;
1;214;13.500;3.000;-3.600;;0.902;0.600;0.902;0.161;
1;215;14.000;3.000;-3.600;;0.486;0.391;0.486;0.160;
1;216;14.500;3.000;-3.600;;0.587;0.587;0.546;0.125;
1;217;15.000;3.000;-3.600;;0.750;0.650;0.750;0.079;
1;218;0.000;3.500;-3.600;;1.129;1.129;0.953;0.204;
1;219;0.500;3.500;-3.600;;0.974;0.974;0.516;0.277;
1;220;1.000;3.500;-3.600;;0.557;0.557;0.103;0.255;
1;221;1.500;3.500;-3.600;;0.497;0.204;0.497;0.205;
1;222;2.000;3.500;-3.600;;0.975;0.626;0.975;0.188;
1;223;2.500;3.500;-3.600;;1.580;1.233;1.580;0.192;
1;224;3.000;3.500;-3.600;;1.737;1.564;1.671;0.187;
1;225;3.500;3.500;-3.600;;0.573;0.340;0.573;0.201;
1;226;4.000;3.500;-3.600;;0.922;0.523;0.922;0.206;
1;227;4.500;3.500;-3.600;;1.330;0.957;1.330;0.191;
1;228;5.000;3.500;-3.600;;1.788;1.425;1.788;0.183;
1;229;5.500;3.500;-3.600;;2.336;1.962;2.336;0.187;
1;230;6.000;3.500;-3.600;;2.608;2.267;2.608;0.191;
1;231;6.500;3.500;-3.600;;1.869;1.497;1.869;0.204;
1;232;7.000;3.500;-3.600;;1.755;1.345;1.755;0.213;
1;233;7.500;3.500;-3.600;;1.752;1.341;1.752;0.210;
1;234;8.000;3.500;-3.600;;1.842;1.440;1.842;0.211;
1;235;8.500;3.500;-3.600;;2.040;1.672;2.040;0.202;
1;236;9.000;3.500;-3.600;;2.669;2.324;2.669;0.191;
1;237;9.500;3.500;-3.600;;2.370;1.997;2.370;0.187;
1;238;10.000;3.500;-3.600;;1.901;1.534;1.901;0.185;
1;239;10.500;3.500;-3.600;;1.552;1.177;1.552;0.191;
1;240;11.000;3.500;-3.600;;1.293;0.922;1.293;0.202;
1;241;11.500;3.500;-3.600;;1.172;0.908;1.172;0.189;
1;242;12.000;3.500;-3.600;;2.425;2.234;2.425;0.169;
1;243;12.500;3.500;-3.600;;2.156;1.815;2.156;0.185;
1;244;13.000;3.500;-3.600;;1.468;1.109;1.468;0.183;
1;245;13.500;3.500;-3.600;;0.956;0.535;0.956;0.217;
1;246;14.000;3.500;-3.600;;0.660;0.598;0.660;0.286;
1;247;14.500;3.500;-3.600;;1.092;1.092;0.818;0.296;
1;248;15.000;3.500;-3.600;;1.525;1.525;1.416;0.212;
1;249;0.000;4.000;-3.600;;2.534;2.534;0.635;1.153;
1;250;0.500;4.000;-3.600;;1.581;1.581;0.335;0.651;
1;251;1.000;4.000;-3.600;;0.657;0.657;0.102;0.363;
1;252;1.500;4.000;-3.600;;0.418;0.115;0.418;0.252;
1;253;2.000;4.000;-3.600;;0.926;0.564;0.926;0.185;
1;254;2.500;4.000;-3.600;;2.125;1.858;2.125;0.138;
1;255;3.000;4.000;-3.600;;3.076;3.045;2.699;0.276;
1;256;3.500;4.000;-3.600;;0.541;0.541;0.118;0.300;
1;257;4.000;4.000;-3.600;;0.708;0.301;0.708;0.221;
1;258;4.500;4.000;-3.600;;1.099;0.740;1.099;0.191;
1;259;5.000;4.000;-3.600;;1.658;1.335;1.658;0.168;
1;260;5.500;4.000;-3.600;;2.624;2.325;2.624;0.150;
1;261;6.000;4.000;-3.600;;3.269;2.865;3.269;0.229;
1;262;6.500;4.000;-3.600;;1.674;1.162;1.674;0.258;
1;263;7.000;4.000;-3.600;;1.629;1.185;1.629;0.222;
1;264;7.500;4.000;-3.600;;1.594;1.165;1.594;0.215;
1;265;8.000;4.000;-3.600;;1.722;1.290;1.722;0.217;
1;266;8.500;4.000;-3.600;;1.906;1.422;1.906;0.245;
1;267;9.000;4.000;-3.600;;3.339;2.922;3.339;0.223;
1;268;9.500;4.000;-3.600;;2.621;2.303;2.621;0.159;
1;269;10.000;4.000;-3.600;;1.812;1.470;1.812;0.173;
1;270;10.500;4.000;-3.600;;1.379;0.998;1.379;0.192;
1;271;11.000;4.000;-3.600;;1.111;0.671;1.111;0.221;
1;272;11.500;4.000;-3.600;;0.729;0.190;0.729;0.302;
1;273;12.000;4.000;-3.600;;3.708;3.708;3.237;0.312;
1;274;12.500;4.000;-3.600;;2.770;2.643;2.770;0.077;
1;275;13.000;4.000;-3.600;;1.307;1.055;1.307;0.145;
1;276;13.500;4.000;-3.600;;0.574;0.390;0.574;0.236;
1;277;14.000;4.000;-3.600;;0.839;0.839;0.370;0.371;
1;278;14.500;4.000;-3.600;;2.081;2.081;0.820;0.680;
1;279;15.000;4.000;-3.600;;3.740;3.740;1.595;1.218;
Extremes;1;0.000;0.000;-3.600;σ_eqv,Tresca,Max;3.936;3.936;1.793;1.306;
1;154;14.500;2.000;-3.600;σ_eqv,Tresca,Max;0.325;0.325;0.318;0.007;
1;1;0.000;0.000;-3.600;σ_eqv,Tresca,+;3.936;3.936;1.793;1.306;
1;8;3.500;0.000;-3.600;σ_eqv,Tresca,+;0.577;0.072;0.577;0.281;
1;267;9.000;4.000;-3.600;σ_eqv,Tresca,-;3.339;2.922;3.339;0.223;
1;251;1.000;4.000;-3.600;σ_eqv,Tresca,-;0.657;0.657;0.102;0.363;
1;1;0.000;0.000;-3.600;σ_eqv,Tresca,m;3.936;3.936;1.793;1.306;
1;154;14.500;2.000;-3.600;σ_eqv,Tresca,m;0.325;0.325;0.318;0.007;
Total;;;;;;3.936;3.936;3.339;1.306;
1;;;;;;0.325;0.072;0.102;0.007;
;;;;;;;;;;
;Total max/min values with corresponding values;;;;;;;;;
1;1;0.000;0.000;-3.600;σ_eqv,Tresca,Max;3.936;3.936;1.793;1.306;
1;154;14.500;2.000;-3.600;σ_eqv,Tresca,Max;0.325;0.325;0.318;0.007;
1;1;0.000;0.000;-3.600;σ_eqv,Tresca,+;3.936;3.936;1.793;1.306;
1;8;3.500;0.000;-3.600;σ_eqv,Tresca,+;0.577;0.072;0.577;0.281;
1;267;9.000;4.000;-3.600;σ_eqv,Tresca,-;3.339;2.922;3.339;0.223;
1;251;1.000;4.000;-3.600;σ_eqv,Tresca,-;0.657;0.657;0.102;0.363;
1;1;0.000;0.000;-3.600;σ_eqv,Tresca,m;3.936;3.936;1.793;1.306;
1;154;14.500;2.000;-3.600;σ_eqv,Tresca,m;0.325;0.325;0.318;0.007;
;;;;;;;;;;
Total;;;;;;3.936;3.936;3.339;1.306;
max/min;;;;;;0.325;0.072;0.102;0.007;
