Surface No.;Grid;Grid Point Coordinates [m];;;;Principal Stresses [N/mm^2 ];;;;;;;;;;
;Point No.;X;Y;Z;;σ_1,+;σ_2,+;α_+ [deg];σ_1,-;σ_2,-;α_- [deg];σ_1,m;σ_2,m;α_m [deg];τ_max;Surface Comment
1;1;0.000;0.000;-3.600;;3.936;0.234;10.23;0.349;-1.444;89.15;1.306;0.231;19.39;0.625;
1;2;0.500;0.000;-3.600;;2.144;0.057;-3.46;0.130;-0.752;68.25;0.764;0.026;6.97;0.536;
1;3;1.000;0.000;-3.600;;0.972;-0.026;-16.03;0.254;-0.310;42.89;0.445;0.001;1.06;0.493;
1;4;1.500;0.000;-3.600;;0.250;-0.297;-43.76;0.697;-0.117;27.07;0.262;0.005;6.38;0.521;
1;5;2.000;0.000;-3.600;;0.148;-1.180;-74.19;1.390;-0.150;14.04;0.109;-0.006;3.58;0.565;
1;6;2.500;0.000;-3.600;;0.044;-2.811;-86.14;2.787;-0.085;4.30;-0.005;-0.028;38.75;0.763;
1;7;3.000;0.000;-3.600;;0.044;-3.263;46.23;3.193;0.364;-43.09;0.216;-0.047;35.07;0.898;
1;8;3.500;0.000;-3.600;;0.072;0.007;-50.45;0.536;-0.041;8.96;0.281;0.006;5.99;0.246;
1;9;4.000;0.000;-3.600;;0.049;-0.488;-85.43;0.880;-0.048;2.61;0.196;0.000;-0.07;0.122;
1;10;4.500;0.000;-3.600;;0.014;-0.845;-84.28;1.165;-0.017;4.13;0.161;-0.003;-0.05;0.158;
1;11;5.000;0.000;-3.600;;0.084;-1.297;-85.17;1.569;-0.086;4.04;0.137;-0.002;0.11;0.205;
1;12;5.500;0.000;-3.600;;0.024;-2.299;89.68;2.515;-0.041;0.09;0.108;-0.009;4.12;0.335;
1;13;6.000;0.000;-3.600;;-0.778;-2.780;79.63;3.117;0.847;-6.11;0.187;0.017;12.86;0.664;
1;14;6.500;0.000;-3.600;;-0.013;-1.284;88.30;1.723;0.019;-0.38;0.221;0.001;3.48;0.163;
1;15;7.000;0.000;-3.600;;0.062;-1.200;87.49;1.575;-0.062;-1.96;0.188;-0.001;-0.11;0.055;
1;16;7.500;0.000;-3.600;;0.005;-1.195;89.23;1.555;-0.010;-0.59;0.180;-0.003;0.00;0.016;
1;17;8.000;0.000;-3.600;;0.062;-1.253;-89.14;1.626;-0.064;0.70;0.187;-0.001;0.12;0.035;
1;18;8.500;0.000;-3.600;;-0.012;-1.417;89.91;1.849;0.014;-0.81;0.216;0.001;-3.15;0.152;
1;19;9.000;0.000;-3.600;;-0.795;-2.863;-83.69;3.228;0.857;3.84;0.192;0.022;-9.70;0.662;
1;20;9.500;0.000;-3.600;;0.020;-2.379;89.49;2.623;-0.036;-0.74;0.122;-0.008;-2.81;0.344;
1;21;10.000;0.000;-3.600;;0.086;-1.447;84.76;1.736;-0.087;-4.42;0.145;-0.002;-0.13;0.221;
1;22;10.500;0.000;-3.600;;0.014;-1.021;84.30;1.350;-0.017;-4.28;0.166;-0.002;0.07;0.172;
1;23;11.000;0.000;-3.600;;0.053;-0.670;85.72;1.066;-0.051;-2.71;0.199;0.000;0.15;0.135;
1;24;11.500;0.000;-3.600;;0.037;-0.110;72.70;0.671;-0.020;-8.45;0.283;0.006;-6.13;0.256;
1;25;12.000;0.000;-3.600;;0.063;-3.280;-46.90;3.218;0.357;41.90;0.223;-0.044;-34.86;0.885;
1;26;12.500;0.000;-3.600;;0.047;-2.670;88.50;2.715;-0.088;-2.51;0.034;-0.031;-26.14;0.676;
1;27;13.000;0.000;-3.600;;0.146;-0.938;73.10;1.166;-0.140;-13.84;0.122;-0.005;-0.42;0.460;
1;28;13.500;0.000;-3.600;;0.217;-0.188;41.46;0.474;-0.090;-23.24;0.213;-0.006;-0.49;0.404;
1;29;14.000;0.000;-3.600;;0.852;0.007;13.45;0.133;-0.278;-49.01;0.353;0.004;-0.97;0.355;
1;30;14.500;0.000;-3.600;;2.099;0.045;-0.94;0.076;-0.850;-79.49;0.656;0.029;-9.28;0.406;
1;31;15.000;0.000;-3.600;;3.901;0.053;-14.29;0.392;-1.566;80.68;1.182;0.208;-19.29;0.524;
1;32;0.000;0.500;-3.600;;1.429;0.275;6.43;-0.260;-1.459;87.41;0.089;-0.096;50.34;0.155;
1;33;0.500;0.500;-3.600;;1.217;0.183;-10.60;0.110;-1.062;65.76;0.246;-0.023;34.81;0.118;
1;34;1.000;0.500;-3.600;;0.842;-0.065;-24.78;0.419;-0.752;46.90;0.286;-0.064;21.55;0.153;
1;35;1.500;0.500;-3.600;;0.300;-0.416;-54.14;0.920;-0.396;30.75;0.258;-0.054;24.88;0.167;
1;36;2.000;0.500;-3.600;;0.230;-1.208;-71.47;1.610;-0.192;20.03;0.203;0.017;25.89;0.171;
1;37;2.500;0.500;-3.600;;-0.081;-1.906;-81.39;2.261;0.032;9.52;0.178;-0.026;13.59;0.236;
1;38;3.000;0.500;-3.600;;-0.030;-1.796;71.94;2.052;0.129;-13.58;0.169;0.009;15.23;0.364;
1;39;3.500;0.500;-3.600;;0.180;-0.424;79.42;0.737;-0.118;-1.52;0.178;0.009;15.32;0.095;
1;40;4.000;0.500;-3.600;;0.121;-0.564;88.82;0.922;-0.102;2.81;0.184;0.004;10.48;0.047;
1;41;4.500;0.500;-3.600;;0.116;-0.859;-85.89;1.196;-0.110;4.79;0.169;0.002;6.77;0.069;
1;42;5.000;0.500;-3.600;;0.086;-1.266;-86.46;1.586;-0.086;3.92;0.160;0.000;5.52;0.114;
1;43;5.500;0.500;-3.600;;-0.037;-1.858;-89.18;2.180;0.033;1.38;0.162;-0.002;4.52;0.179;
1;44;6.000;0.500;-3.600;;-0.183;-2.190;83.48;2.513;0.227;-5.03;0.167;0.017;4.94;0.398;
1;45;6.500;0.500;-3.600;;0.062;-1.403;85.09;1.752;-0.034;-2.98;0.179;0.010;5.49;0.093;
1;46;7.000;0.500;-3.600;;0.102;-1.241;86.10;1.612;-0.087;-2.46;0.187;0.006;2.86;0.025;
1;47;7.500;0.500;-3.600;;0.109;-1.215;88.78;1.586;-0.100;-0.95;0.186;0.004;0.05;0.015;
1;48;8.000;0.500;-3.600;;0.095;-1.286;-88.62;1.660;-0.083;0.54;0.188;0.005;-2.64;0.037;
1;49;8.500;0.500;-3.600;;0.045;-1.492;-87.50;1.848;-0.022;1.12;0.181;0.009;-5.10;0.102;
1;50;9.000;0.500;-3.600;;-0.201;-2.288;-86.00;2.623;0.243;2.93;0.170;0.018;-4.35;0.398;
1;51;9.500;0.500;-3.600;;-0.030;-1.981;87.74;2.314;0.029;-2.44;0.166;-0.001;-3.51;0.170;
1;52;10.000;0.500;-3.600;;0.098;-1.430;85.21;1.761;-0.096;-4.73;0.165;0.001;-4.47;0.106;
1;53;10.500;0.500;-3.600;;0.129;-1.047;84.94;1.393;-0.123;-5.23;0.173;0.003;-5.80;0.065;
1;54;11.000;0.500;-3.600;;0.132;-0.757;89.71;1.122;-0.116;-2.96;0.186;0.005;-9.58;0.048;
1;55;11.500;0.500;-3.600;;0.184;-0.595;-81.73;0.909;-0.126;1.61;0.176;0.011;-14.87;0.102;
1;56;12.000;0.500;-3.600;;0.023;-1.937;-72.42;2.170;0.074;13.74;0.157;0.008;-16.48;0.385;
1;57;12.500;0.500;-3.600;;-0.064;-1.822;86.82;2.110;0.037;-5.47;0.153;-0.022;-17.32;0.270;
1;58;13.000;0.500;-3.600;;0.177;-0.910;77.14;1.223;-0.204;-14.73;0.159;-0.016;-20.60;0.184;
1;59;13.500;0.500;-3.600;;0.312;-0.240;56.85;0.623;-0.331;-28.36;0.196;-0.014;-22.02;0.125;
1;60;14.000;0.500;-3.600;;0.638;0.106;14.43;0.212;-0.507;-50.40;0.252;-0.027;-26.77;0.118;
1;61;14.500;0.500;-3.600;;1.129;0.217;-5.89;-0.084;-0.885;-76.33;0.240;-0.051;-35.99;0.144;
1;62;15.000;0.500;-3.600;;1.557;0.197;-19.35;-0.315;-1.471;79.07;0.097;-0.113;-45.74;0.172;
1;63;0.000;1.000;-3.600;;0.559;0.161;-16.56;-0.270;-0.687;71.24;-0.050;-0.068;42.40;0.134;
1;64;0.500;1.000;-3.600;;0.723;0.213;-31.70;0.020;-0.860;62.10;0.119;-0.071;67.21;0.095;
1;65;1.000;1.000;-3.600;;0.712;0.005;-44.07;0.113;-0.865;46.77;0.059;-0.077;48.94;0.163;
1;66;1.500;1.000;-3.600;;0.323;-0.549;-60.91;0.954;-0.380;26.30;0.206;-0.032;21.14;0.147;
1;67;2.000;1.000;-3.600;;0.256;-0.943;-60.69;1.653;-0.153;28.81;0.355;0.051;27.82;0.178;
1;68;2.500;1.000;-3.600;;0.106;-1.222;-81.53;1.646;-0.155;11.60;0.219;-0.032;19.99;0.225;
1;69;3.000;1.000;-3.600;;0.184;-1.211;84.69;1.491;-0.134;-2.46;0.151;0.014;12.70;0.182;
1;70;3.500;1.000;-3.600;;0.288;-0.669;83.63;0.951;-0.212;-2.19;0.154;0.025;14.21;0.026;
1;71;4.000;1.000;-3.600;;0.238;-0.671;88.19;0.977;-0.200;1.27;0.159;0.014;11.09;0.026;
1;72;4.500;1.000;-3.600;;0.227;-0.887;-87.84;1.213;-0.210;3.40;0.165;0.008;7.79;0.066;
1;73;5.000;1.000;-3.600;;0.205;-1.244;-87.06;1.580;-0.198;3.33;0.168;0.004;5.04;0.094;
1;74;5.500;1.000;-3.600;;0.165;-1.644;-89.66;1.983;-0.160;0.67;0.170;0.002;2.47;0.117;
1;75;6.000;1.000;-3.600;;0.145;-1.864;86.42;2.203;-0.113;-3.02;0.170;0.016;0.61;0.207;
1;76;6.500;1.000;-3.600;;0.219;-1.481;85.46;1.825;-0.178;-3.44;0.174;0.018;2.62;0.053;
1;77;7.000;1.000;-3.600;;0.215;-1.309;86.10;1.664;-0.191;-2.92;0.179;0.011;1.60;0.028;
1;78;7.500;1.000;-3.600;;0.217;-1.261;88.64;1.624;-0.197;-1.12;0.182;0.010;-0.07;0.012;
1;79;8.000;1.000;-3.600;;0.208;-1.351;-88.78;1.710;-0.186;0.69;0.180;0.011;-1.75;0.038;
1;80;8.500;1.000;-3.600;;0.205;-1.561;-88.00;1.912;-0.168;1.27;0.176;0.017;-2.82;0.062;
1;81;9.000;1.000;-3.600;;0.136;-1.979;-88.66;2.325;-0.102;1.06;0.173;0.016;-0.85;0.207;
1;82;9.500;1.000;-3.600;;0.170;-1.789;87.71;2.136;-0.162;-2.25;0.173;0.004;-2.01;0.111;
1;83;10.000;1.000;-3.600;;0.217;-1.421;85.37;1.765;-0.209;-4.55;0.172;0.004;-4.18;0.089;
1;84;10.500;1.000;-3.600;;0.242;-1.089;86.21;1.426;-0.227;-4.30;0.169;0.007;-6.44;0.061;
1;85;11.000;1.000;-3.600;;0.253;-0.886;-89.86;1.204;-0.219;-1.72;0.162;0.014;-8.94;0.024;
1;86;11.500;1.000;-3.600;;0.304;-0.885;-84.91;1.174;-0.233;2.41;0.152;0.028;-10.86;0.032;
1;87;12.000;1.000;-3.600;;0.230;-1.437;-83.30;1.713;-0.182;5.00;0.144;0.018;-6.52;0.192;
1;88;12.500;1.000;-3.600;;0.185;-1.374;87.24;1.655;-0.193;-4.58;0.145;-0.009;-13.96;0.174;
1;89;13.000;1.000;-3.600;;0.277;-0.816;78.93;1.100;-0.282;-13.62;0.147;-0.008;-22.78;0.146;
1;90;13.500;1.000;-3.600;;0.336;-0.234;69.12;0.523;-0.355;-24.84;0.148;-0.013;-31.89;0.123;
1;91;14.000;1.000;-3.600;;0.395;0.198;35.66;0.070;-0.441;-46.46;0.137;-0.026;-41.73;0.089;
1;92;14.500;1.000;-3.600;;0.614;0.286;-9.40;-0.168;-0.575;-79.61;0.104;-0.026;-52.91;0.083;
1;93;15.000;1.000;-3.600;;0.626;0.168;-19.49;-0.309;-0.715;67.44;-0.040;-0.075;-0.32;0.143;
1;94;0.000;1.500;-3.600;;0.412;0.114;-30.46;-0.155;-0.567;48.43;-0.005;-0.093;28.57;0.067;
1;95;0.500;1.500;-3.600;;0.521;0.153;-54.76;-0.015;-0.592;44.91;0.082;-0.049;58.87;0.066;
1;96;1.000;1.500;-3.600;;0.570;0.017;-70.54;0.102;-0.479;36.41;0.135;-0.031;70.58;0.144;
1;98;2.000;1.500;-3.600;;0.421;-0.384;-70.86;0.364;-0.466;24.10;0.019;-0.052;61.75;0.182;
1;99;2.500;1.500;-3.600;;0.365;-0.859;-83.81;0.985;-0.348;9.51;0.082;-0.010;34.64;0.171;
1;100;3.000;1.500;-3.600;;0.382;-0.950;89.58;1.208;-0.336;2.32;0.140;0.012;17.02;0.098;
1;101;3.500;1.500;-3.600;;0.382;-0.719;87.45;0.980;-0.318;-0.53;0.135;0.028;10.11;0.020;
1;102;4.000;1.500;-3.600;;0.343;-0.739;88.13;1.029;-0.291;-0.12;0.148;0.023;7.60;0.027;
1;103;4.500;1.500;-3.600;;0.335;-0.915;89.98;1.231;-0.304;0.90;0.159;0.015;4.95;0.051;
1;104;5.000;1.500;-3.600;;0.346;-1.209;-89.43;1.542;-0.328;0.99;0.167;0.009;3.06;0.067;
1;105;5.500;1.500;-3.600;;0.356;-1.510;89.49;1.852;-0.338;-0.23;0.172;0.009;1.33;0.070;
1;106;6.000;1.500;-3.600;;0.344;-1.655;87.71;2.002;-0.313;-1.93;0.174;0.016;0.39;0.106;
1;107;6.500;1.500;-3.600;;0.353;-1.471;86.99;1.822;-0.317;-2.45;0.176;0.017;0.77;0.032;
1;108;7.000;1.500;-3.600;;0.328;-1.349;87.15;1.705;-0.296;-2.30;0.179;0.016;0.50;0.019;
1;109;7.500;1.500;-3.600;;0.316;-1.311;88.65;1.671;-0.288;-1.17;0.180;0.014;-0.28;0.009;
1;110;8.000;1.500;-3.600;;0.323;-1.393;-89.78;1.752;-0.292;0.02;0.180;0.015;-1.05;0.027;
1;111;8.500;1.500;-3.600;;0.344;-1.556;-89.40;1.911;-0.310;0.32;0.178;0.017;-1.34;0.039;
1;112;9.000;1.500;-3.600;;0.335;-1.778;-89.87;2.130;-0.303;0.01;0.176;0.016;-0.79;0.104;
1;113;9.500;1.500;-3.600;;0.353;-1.662;88.37;2.012;-0.335;-1.58;0.175;0.009;-1.27;0.065;
1;114;10.000;1.500;-3.600;;0.350;-1.395;87.25;1.738;-0.333;-2.73;0.172;0.008;-2.65;0.061;
1;115;10.500;1.500;-3.600;;0.344;-1.134;87.85;1.463;-0.318;-2.46;0.165;0.013;-3.99;0.045;
1;116;11.000;1.500;-3.600;;0.356;-0.984;-89.89;1.293;-0.312;-0.81;0.156;0.021;-5.39;0.021;
1;117;11.500;1.500;-3.600;;0.399;-0.979;-88.05;1.267;-0.344;0.87;0.146;0.026;-5.42;0.006;
1;118;12.000;1.500;-3.600;;0.406;-1.203;-87.55;1.478;-0.362;1.50;0.139;0.020;-5.05;0.096;
1;119;12.500;1.500;-3.600;;0.417;-1.129;88.33;1.377;-0.386;-2.77;0.126;0.013;-10.36;0.095;
1;120;13.000;1.500;-3.600;;0.413;-0.720;84.36;0.933;-0.373;-7.73;0.112;0.015;-20.40;0.099;
1;121;13.500;1.500;-3.600;;0.387;-0.242;80.55;0.405;-0.329;-14.64;0.096;0.015;-36.76;0.090;
1;122;14.000;1.500;-3.600;;0.342;0.163;76.10;-0.037;-0.303;-32.34;0.082;0.001;-52.96;0.063;
1;123;14.500;1.500;-3.600;;0.378;0.291;-19.44;-0.261;-0.367;-81.93;0.033;-0.012;-56.00;0.036;
1;124;15.000;1.500;-3.600;;0.353;0.210;-16.72;-0.354;-0.446;43.58;-0.028;-0.090;3.08;0.088;
1;125;0.000;2.000;-3.600;;0.415;0.087;-38.84;-0.125;-0.556;39.14;0.002;-0.091;16.40;0.009;
1;126;0.500;2.000;-3.600;;0.439;0.122;-55.00;0.003;-0.432;36.03;0.063;0.003;38.79;0.044;
1;127;1.000;2.000;-3.600;;0.360;0.089;-76.34;0.252;-0.137;36.08;0.210;0.073;58.21;0.132;
1;128;1.500;2.000;-3.600;;0.131;-0.337;-61.96;0.506;-0.121;21.84;0.094;-0.005;6.62;0.323;
1;129;2.000;2.000;-3.600;;0.442;-0.490;-81.78;0.579;-0.484;5.31;0.053;-0.029;-12.14;0.265;
1;130;2.500;2.000;-3.600;;0.546;-0.747;-83.81;0.886;-0.486;5.38;0.071;0.028;-7.06;0.088;
1;131;3.000;2.000;-3.600;;0.479;-0.814;-87.49;1.014;-0.432;2.62;0.100;0.024;3.75;0.021;
1;132;3.500;2.000;-3.600;;0.444;-0.676;-89.42;0.932;-0.380;0.64;0.128;0.032;0.96;0.027;
1;133;4.000;2.000;-3.600;;0.401;-0.732;88.60;1.021;-0.347;-1.08;0.145;0.027;0.47;0.033;
1;134;4.500;2.000;-3.600;;0.398;-0.916;87.91;1.233;-0.362;-1.66;0.159;0.018;0.36;0.047;
1;135;5.000;2.000;-3.600;;0.421;-1.194;88.15;1.531;-0.398;-1.49;0.169;0.011;0.31;0.054;
1;136;5.500;2.000;-3.600;;0.441;-1.461;88.41;1.809;-0.418;-1.33;0.174;0.011;0.22;0.046;
1;137;6.000;2.000;-3.600;;0.428;-1.575;88.61;1.930;-0.396;-1.20;0.177;0.016;0.00;0.032;
1;138;6.500;2.000;-3.600;;0.420;-1.452;88.50;1.810;-0.385;-1.32;0.179;0.017;-0.26;0.013;
1;139;7.000;2.000;-3.600;;0.385;-1.359;88.38;1.721;-0.352;-1.43;0.181;0.017;-0.40;0.009;
1;140;7.500;2.000;-3.600;;0.369;-1.332;88.59;1.697;-0.338;-1.26;0.182;0.016;-0.45;0.006;
1;141;8.000;2.000;-3.600;;0.382;-1.409;88.94;1.773;-0.350;-0.97;0.182;0.016;-0.48;0.018;
1;142;8.500;2.000;-3.600;;0.413;-1.546;89.15;1.907;-0.380;-0.80;0.181;0.017;-0.53;0.022;
1;143;9.000;2.000;-3.600;;0.417;-1.702;89.29;2.061;-0.385;-0.68;0.179;0.016;-0.54;0.030;
1;144;9.500;2.000;-3.600;;0.429;-1.611;89.23;1.966;-0.407;-0.74;0.177;0.011;-0.55;0.039;
1;145;10.000;2.000;-3.600;;0.413;-1.382;89.12;1.728;-0.392;-0.84;0.173;0.011;-0.63;0.045;
1;146;10.500;2.000;-3.600;;0.397;-1.152;89.22;1.483;-0.366;-0.76;0.165;0.016;-0.70;0.038;
1;147;11.000;2.000;-3.600;;0.409;-1.017;89.45;1.329;-0.364;-0.59;0.156;0.023;-0.79;0.023;
1;148;11.500;2.000;-3.600;;0.457;-0.996;89.53;1.288;-0.406;-0.53;0.146;0.025;-0.88;0.012;
1;149;12.000;2.000;-3.600;;0.482;-1.123;89.57;1.399;-0.438;-0.48;0.138;0.022;-0.77;0.030;
1;150;12.500;2.000;-3.600;;0.501;-1.046;89.50;1.283;-0.456;-0.53;0.118;0.023;-0.80;0.060;
1;151;13.000;2.000;-3.600;;0.478;-0.687;89.40;0.871;-0.414;-0.68;0.092;0.032;-1.46;0.078;
1;152;13.500;2.000;-3.600;;0.425;-0.251;89.73;0.366;-0.329;-0.56;0.058;0.048;-10.43;0.077;
1;153;14.000;2.000;-3.600;;0.371;0.111;-87.76;-0.065;-0.272;1.59;0.050;0.023;-85.20;0.056;
1;154;14.500;2.000;-3.600;;0.325;0.296;-38.90;-0.294;-0.318;65.83;0.006;-0.001;-66.72;0.025;
1;155;15.000;2.000;-3.600;;0.331;0.219;-4.14;-0.370;-0.407;5.48;-0.020;-0.094;-1.81;0.030;
1;156;0.000;2.500;-3.600;;0.489;0.027;-39.03;-0.133;-0.622;41.86;-0.022;-0.098;6.37;0.045;
1;157;0.500;2.500;-3.600;;0.513;0.044;-49.87;-0.009;-0.442;44.15;0.044;0.008;-78.12;0.046;
1;158;1.000;2.500;-3.600;;0.417;-0.030;-59.41;0.159;-0.257;37.65;0.100;0.045;86.99;0.064;
1;159;1.500;2.500;-3.600;;0.339;-0.302;-70.29;0.448;-0.281;16.12;0.082;0.020;-4.17;0.049;
1;160;2.000;2.500;-3.600;;0.424;-0.590;-82.69;0.812;-0.423;5.00;0.115;-0.004;-4.99;0.013;
1;161;2.500;2.500;-3.600;;0.489;-0.789;-83.10;1.025;-0.459;4.42;0.126;0.007;-9.31;0.059;
1;162;3.000;2.500;-3.600;;0.472;-0.747;-81.71;0.983;-0.402;5.79;0.127;0.026;-10.05;0.063;
1;163;3.500;2.500;-3.600;;0.437;-0.568;-86.22;0.844;-0.366;1.68;0.141;0.032;-8.09;0.029;
1;164;4.000;2.500;-3.600;;0.389;-0.651;88.75;0.959;-0.339;-2.27;0.155;0.024;-6.34;0.040;
1;165;4.500;2.500;-3.600;;0.386;-0.883;85.55;1.216;-0.357;-4.36;0.167;0.015;-4.01;0.057;
1;166;5.000;2.500;-3.600;;0.403;-1.206;85.56;1.556;-0.385;-4.08;0.175;0.009;-2.31;0.066;
1;167;5.500;2.500;-3.600;;0.416;-1.507;87.25;1.865;-0.397;-2.46;0.180;0.010;-0.80;0.063;
1;168;6.000;2.500;-3.600;;0.408;-1.615;89.58;1.977;-0.373;-0.42;0.181;0.017;-0.36;0.056;
1;169;6.500;2.500;-3.600;;0.401;-1.446;-89.94;1.813;-0.364;-0.15;0.184;0.019;-1.28;0.020;
1;170;7.000;2.500;-3.600;;0.364;-1.341;89.62;1.714;-0.332;-0.53;0.187;0.016;-1.25;0.011;
1;171;7.500;2.500;-3.600;;0.350;-1.315;88.44;1.691;-0.322;-1.39;0.188;0.014;-0.57;0.008;
1;172;8.000;2.500;-3.600;;0.363;-1.402;87.53;1.776;-0.332;-2.05;0.187;0.015;0.12;0.023;
1;173;8.500;2.500;-3.600;;0.394;-1.556;87.62;1.925;-0.358;-1.98;0.185;0.017;0.32;0.031;
1;174;9.000;2.500;-3.600;;0.393;-1.744;88.50;2.110;-0.359;-1.33;0.183;0.017;-0.24;0.060;
1;175;9.500;2.500;-3.600;;0.397;-1.644;-89.84;2.007;-0.378;0.17;0.182;0.010;0.21;0.055;
1;176;10.000;2.500;-3.600;;0.382;-1.389;-88.97;1.744;-0.364;1.09;0.178;0.009;1.41;0.055;
1;177;10.500;2.500;-3.600;;0.373;-1.135;-89.49;1.476;-0.345;0.87;0.171;0.014;2.57;0.044;
1;178;11.000;2.500;-3.600;;0.391;-0.987;88.63;1.308;-0.345;-0.51;0.161;0.022;3.76;0.024;
1;179;11.500;2.500;-3.600;;0.445;-0.974;87.03;1.273;-0.389;-1.99;0.151;0.027;3.61;0.007;
1;180;12.000;2.500;-3.600;;0.461;-1.170;86.73;1.454;-0.416;-2.39;0.144;0.021;3.52;0.056;
1;181;12.500;2.500;-3.600;;0.458;-1.116;-89.26;1.372;-0.426;1.77;0.130;0.014;8.87;0.085;
1;182;13.000;2.500;-3.600;;0.443;-0.721;-85.61;0.938;-0.399;6.34;0.113;0.017;18.51;0.094;
1;183;13.500;2.500;-3.600;;0.413;-0.251;-81.79;0.415;-0.349;12.85;0.095;0.019;35.24;0.089;
1;184;14.000;2.500;-3.600;;0.382;0.143;-76.90;-0.026;-0.328;27.62;0.080;0.006;53.43;0.066;
1;185;14.500;2.500;-3.600;;0.367;0.341;33.86;-0.302;-0.362;68.23;0.029;-0.008;58.65;0.043;
1;186;15.000;2.500;-3.600;;0.379;0.258;19.65;-0.383;-0.496;-36.57;-0.028;-0.093;-6.96;0.029;
1;187;0.000;3.000;-3.600;;0.623;0.020;-35.24;-0.157;-0.742;50.79;-0.043;-0.085;1.22;0.096;
1;188;0.500;3.000;-3.600;;0.674;0.030;-43.70;-0.030;-0.486;52.86;0.103;-0.009;-57.42;0.057;
1;189;1.000;3.000;-3.600;;0.468;0.007;-51.49;0.038;-0.231;31.69;0.123;0.018;-42.73;0.066;
1;190;1.500;3.000;-3.600;;0.311;-0.170;-73.07;0.377;-0.215;5.71;0.135;0.017;-19.95;0.078;
1;191;2.000;3.000;-3.600;;0.275;-0.539;-83.81;0.820;-0.263;1.26;0.152;-0.005;-11.92;0.090;
1;192;2.500;3.000;-3.600;;0.279;-0.903;-82.28;1.200;-0.265;4.21;0.159;-0.004;-8.94;0.115;
1;193;3.000;3.000;-3.600;;0.399;-0.806;-74.91;1.083;-0.303;11.12;0.157;0.030;-9.06;0.133;
1;194;3.500;3.000;-3.600;;0.385;-0.380;-81.18;0.684;-0.297;3.36;0.166;0.030;-12.82;0.049;
1;195;4.000;3.000;-3.600;;0.311;-0.504;87.50;0.847;-0.278;-4.46;0.174;0.015;-9.50;0.053;
1;196;4.500;3.000;-3.600;;0.307;-0.825;82.35;1.185;-0.291;-7.39;0.180;0.008;-6.51;0.080;
1;197;5.000;3.000;-3.600;;0.295;-1.242;82.53;1.608;-0.287;-6.82;0.184;0.004;-4.04;0.099;
1;198;5.500;3.000;-3.600;;0.267;-1.657;85.88;2.028;-0.260;-3.74;0.186;0.004;-1.76;0.117;
1;199;6.000;3.000;-3.600;;0.270;-1.799;-88.93;2.171;-0.231;0.84;0.186;0.019;-0.55;0.149;
1;200;6.500;3.000;-3.600;;0.304;-1.436;-87.98;1.814;-0.262;1.19;0.190;0.020;-3.07;0.038;
1;201;7.000;3.000;-3.600;;0.269;-1.289;-89.21;1.679;-0.245;0.23;0.195;0.012;-2.15;0.020;
1;202;7.500;3.000;-3.600;;0.262;-1.262;88.17;1.658;-0.243;-1.59;0.198;0.010;-0.62;0.014;
1;203;8.000;3.000;-3.600;;0.268;-1.367;85.99;1.756;-0.244;-3.10;0.196;0.011;0.92;0.035;
1;204;8.500;3.000;-3.600;;0.291;-1.576;85.74;1.954;-0.252;-3.31;0.191;0.018;1.88;0.053;
1;205;9.000;3.000;-3.600;;0.251;-1.925;87.41;2.299;-0.214;-2.24;0.187;0.018;0.01;0.156;
1;206;9.500;3.000;-3.600;;0.249;-1.761;-88.78;2.134;-0.239;1.19;0.187;0.005;1.00;0.100;
1;207;10.000;3.000;-3.600;;0.264;-1.407;-86.88;1.776;-0.255;3.09;0.184;0.004;2.98;0.082;
1;208;10.500;3.000;-3.600;;0.278;-1.085;-88.09;1.445;-0.261;2.54;0.181;0.008;5.04;0.060;
1;209;11.000;3.000;-3.600;;0.303;-0.891;87.88;1.229;-0.267;-0.17;0.172;0.015;7.30;0.029;
1;210;11.500;3.000;-3.600;;0.386;-0.889;83.36;1.196;-0.311;-4.05;0.162;0.029;8.88;0.023;
1;211;12.000;3.000;-3.600;;0.338;-1.383;82.68;1.678;-0.289;-5.68;0.153;0.019;5.11;0.144;
1;212;12.500;3.000;-3.600;;0.259;-1.357;-87.72;1.654;-0.265;3.98;0.153;-0.007;12.67;0.166;
1;213;13.000;3.000;-3.600;;0.320;-0.815;-80.05;1.110;-0.320;12.40;0.153;-0.005;21.33;0.140;
1;214;13.500;3.000;-3.600;;0.362;-0.238;-71.80;0.531;-0.371;22.53;0.152;-0.009;30.66;0.121;
1;215;14.000;3.000;-3.600;;0.391;0.224;-47.63;0.052;-0.434;41.51;0.138;-0.021;41.07;0.092;
1;216;14.500;3.000;-3.600;;0.587;0.366;13.25;-0.243;-0.546;76.09;0.104;-0.021;53.11;0.083;
1;217;15.000;3.000;-3.600;;0.650;0.272;22.06;-0.410;-0.750;-62.73;-0.041;-0.079;-5.24;0.083;
1;218;0.000;3.500;-3.600;;1.106;-0.023;-33.79;-0.191;-0.953;61.70;0.087;-0.117;-44.22;0.152;
1;219;0.500;3.500;-3.600;;0.974;0.008;-28.86;-0.071;-0.516;69.62;0.237;-0.040;-35.65;0.094;
1;220;1.000;3.500;-3.600;;0.557;0.052;-28.74;-0.020;-0.103;16.55;0.249;-0.006;-24.01;0.088;
1;221;1.500;3.500;-3.600;;0.183;-0.021;-67.39;0.376;-0.120;-3.17;0.205;0.004;-14.83;0.094;
1;222;2.000;3.500;-3.600;;0.125;-0.501;-87.37;0.854;-0.121;-2.53;0.183;-0.004;-11.22;0.134;
1;223;2.500;3.500;-3.600;;0.040;-1.193;-85.47;1.538;-0.042;1.16;0.182;-0.010;-9.94;0.193;
1;224;3.000;3.500;-3.600;;0.384;-1.152;-60.27;1.397;-0.188;24.52;0.187;0.033;-13.65;0.254;
1;225;3.500;3.500;-3.600;;0.302;-0.038;-66.35;0.367;-0.206;3.99;0.201;0.012;-13.43;0.107;
1;226;4.000;3.500;-3.600;;0.184;-0.339;84.79;0.750;-0.172;-6.81;0.206;0.006;-8.91;0.078;
1;227;4.500;3.500;-3.600;;0.190;-0.767;79.39;1.147;-0.183;-9.17;0.191;0.003;-5.52;0.083;
1;228;5.000;3.500;-3.600;;0.169;-1.257;81.42;1.622;-0.166;-7.72;0.183;0.000;-4.38;0.120;
1;229;5.500;3.500;-3.600;;0.066;-1.896;85.27;2.267;-0.069;-4.54;0.185;-0.001;-3.55;0.175;
1;230;6.000;3.500;-3.600;;-0.014;-2.181;-85.53;2.556;0.068;3.22;0.191;0.023;-4.63;0.328;
1;231;6.500;3.500;-3.600;;0.155;-1.342;-86.37;1.743;-0.126;1.78;0.204;0.011;-5.47;0.064;
1;232;7.000;3.500;-3.600;;0.140;-1.205;-88.50;1.629;-0.126;0.43;0.213;0.006;-3.03;0.021;
1;233;7.500;3.500;-3.600;;0.140;-1.200;88.05;1.621;-0.131;-1.60;0.210;0.004;-0.46;0.017;
1;234;8.000;3.500;-3.600;;0.142;-1.298;85.27;1.715;-0.127;-3.25;0.211;0.006;1.97;0.035;
1;235;8.500;3.500;-3.600;;0.140;-1.532;84.55;1.928;-0.112;-3.67;0.202;0.010;4.13;0.079;
1;236;9.000;3.500;-3.600;;-0.040;-2.286;85.18;2.661;0.089;-3.74;0.191;0.022;3.32;0.334;
1;237;9.500;3.500;-3.600;;0.054;-1.943;-87.93;2.317;-0.054;2.13;0.187;0.000;2.48;0.152;
1;238;10.000;3.500;-3.600;;0.131;-1.403;-86.07;1.773;-0.128;3.83;0.185;0.001;3.38;0.102;
1;239;10.500;3.500;-3.600;;0.150;-1.027;-86.81;1.408;-0.143;3.56;0.191;0.003;4.70;0.066;
1;240;11.000;3.500;-3.600;;0.168;-0.754;87.11;1.147;-0.146;0.41;0.202;0.006;8.26;0.053;
1;241;11.500;3.500;-3.600;;0.283;-0.624;78.75;0.958;-0.214;-4.69;0.189;0.012;13.10;0.085;
1;242;12.000;3.500;-3.600;;0.168;-1.922;73.25;2.186;-0.072;-13.18;0.169;0.011;14.62;0.326;
1;243;12.500;3.500;-3.600;;0.013;-1.802;-86.51;2.116;-0.039;5.55;0.164;-0.020;15.87;0.258;
1;244;13.000;3.500;-3.600;;0.207;-0.902;-77.54;1.237;-0.232;14.10;0.169;-0.014;19.10;0.178;
1;245;13.500;3.500;-3.600;;0.313;-0.223;-59.45;0.628;-0.329;26.23;0.206;-0.011;20.91;0.123;
1;246;14.000;3.500;-3.600;;0.598;0.155;-13.93;0.189;-0.471;46.74;0.261;-0.025;26.07;0.119;
1;247;14.500;3.500;-3.600;;1.092;0.281;8.97;-0.160;-0.818;75.89;0.247;-0.050;35.58;0.142;
1;248;15.000;3.500;-3.600;;1.525;0.296;23.09;-0.442;-1.416;-75.80;0.097;-0.115;45.36;0.147;
1;249;0.000;4.000;-3.600;;2.474;-0.060;-20.43;0.460;-0.175;64.24;1.153;0.196;-18.68;0.188;
1;250;0.500;4.000;-3.600;;1.581;0.000;-9.32;0.055;-0.279;80.42;0.651;0.028;-9.25;0.070;
1;251;1.000;4.000;-3.600;;0.657;0.030;-2.38;0.072;-0.030;8.71;0.363;0.002;-0.85;0.066;
1;252;1.500;4.000;-3.600;;0.115;0.009;16.23;0.386;-0.032;-3.96;0.245;-0.007;-0.03;0.124;
1;253;2.000;4.000;-3.600;;0.068;-0.495;82.86;0.856;-0.070;-4.27;0.182;-0.003;0.12;0.193;
1;254;2.500;4.000;-3.600;;0.041;-1.817;-88.54;2.051;-0.073;0.48;0.120;-0.018;-6.22;0.421;
1;255;3.000;4.000;-3.600;;0.651;-2.252;-46.09;2.381;-0.161;42.94;0.268;0.041;-20.20;0.665;
1;256;3.500;4.000;-3.600;;0.541;0.052;-7.38;0.063;-0.055;4.19;0.300;0.000;-5.16;0.254;
1;257;4.000;4.000;-3.600;;0.063;-0.238;72.17;0.662;-0.046;-7.04;0.221;0.000;0.20;0.196;
1;258;4.500;4.000;-3.600;;0.035;-0.705;77.58;1.070;-0.029;-8.18;0.189;-0.003;0.10;0.253;
1;259;5.000;4.000;-3.600;;0.093;-1.242;80.52;1.568;-0.089;-7.61;0.167;-0.002;-0.13;0.321;
1;260;5.500;4.000;-3.600;;0.025;-2.299;86.41;2.579;-0.045;-3.52;0.140;-0.010;-2.98;0.485;
1;261;6.000;4.000;-3.600;;-0.635;-2.865;-77.75;3.269;0.743;6.91;0.228;0.028;-10.13;0.708;
1;262;6.500;4.000;-3.600;;-0.007;-1.162;-87.12;1.674;0.013;1.00;0.258;0.001;-3.24;0.133;
1;263;7.000;4.000;-3.600;;0.048;-1.137;-89.08;1.580;-0.049;0.70;0.221;0.000;0.13;0.029;
1;264;7.500;4.000;-3.600;;0.008;-1.157;88.34;1.581;-0.013;-1.21;0.212;-0.003;0.01;0.045;
1;265;8.000;4.000;-3.600;;0.055;-1.235;86.12;1.667;-0.055;-2.93;0.217;-0.001;-0.12;0.103;
1;266;8.500;4.000;-3.600;;-0.001;-1.422;85.64;1.906;0.007;-2.53;0.245;0.000;2.78;0.195;
1;267;9.000;4.000;-3.600;;-0.676;-2.922;81.22;3.339;0.760;-5.64;0.223;0.028;7.67;0.667;
1;268;9.500;4.000;-3.600;;0.019;-2.284;-88.35;2.586;-0.036;1.69;0.151;-0.008;2.04;0.356;
1;269;10.000;4.000;-3.600;;0.073;-1.397;-85.10;1.738;-0.074;3.99;0.171;-0.002;0.13;0.209;
1;270;10.500;4.000;-3.600;;0.014;-0.985;-85.64;1.362;-0.017;3.13;0.190;-0.003;-0.07;0.145;
1;271;11.000;4.000;-3.600;;0.035;-0.636;-88.85;1.077;-0.034;0.64;0.221;0.000;-0.15;0.095;
1;272;11.500;4.000;-3.600;;0.072;-0.118;70.93;0.696;-0.033;-0.05;0.302;0.006;5.67;0.190;
1;273;12.000;4.000;-3.600;;0.110;-3.262;50.50;3.237;0.314;-36.20;0.235;-0.036;32.87;0.864;
1;274;12.500;4.000;-3.600;;0.043;-2.600;-87.25;2.684;-0.086;3.68;0.049;-0.028;20.55;0.707;
1;275;13.000;4.000;-3.600;;0.140;-0.916;-72.71;1.175;-0.131;13.73;0.140;-0.006;0.36;0.461;
1;276;13.500;4.000;-3.600;;0.215;-0.175;-40.98;0.490;-0.084;21.66;0.230;-0.006;0.45;0.390;
1;277;14.000;4.000;-3.600;;0.839;0.006;-12.23;0.139;-0.231;46.97;0.371;0.005;0.95;0.325;
1;278;14.500;4.000;-3.600;;2.081;0.038;3.09;0.061;-0.759;83.27;0.680;0.030;9.21;0.331;
1;279;15.000;4.000;-3.600;;3.740;0.143;17.28;0.286;-1.309;-75.05;1.218;0.212;19.13;0.399;
Extremes;1;0.000;0.000;-3.600;σ_1,+;3.936;0.234;10.23;0.349;-1.444;89.15;1.306;0.231;19.39;0.625;
1;19;9.000;0.000;-3.600;σ_1,+;-0.795;-2.863;-83.69;3.228;0.857;3.84;0.192;0.022;-9.70;0.662;
1;216;14.500;3.000;-3.600;σ_2,+;0.587;0.366;13.25;-0.243;-0.546;76.09;0.104;-0.021;53.11;0.083;
1;25;12.000;0.000;-3.600;σ_2,+;0.063;-3.280;-46.90;3.218;0.357;41.90;0.223;-0.044;-34.86;0.885;
1;267;9.000;4.000;-3.600;σ_1,-;-0.676;-2.922;81.22;3.339;0.760;-5.64;0.223;0.028;7.67;0.667;
1;248;15.000;3.500;-3.600;σ_1,-;1.525;0.296;23.09;-0.442;-1.416;-75.80;0.097;-0.115;45.36;0.147;
1;19;9.000;0.000;-3.600;σ_2,-;-0.795;-2.863;-83.69;3.228;0.857;3.84;0.192;0.022;-9.70;0.662;
1;31;15.000;0.000;-3.600;σ_2,-;3.901;0.053;-14.29;0.392;-1.566;80.68;1.182;0.208;-19.29;0.524;
1;1;0.000;0.000;-3.600;σ_1,m;3.936;0.234;10.23;0.349;-1.444;89.15;1.306;0.231;19.39;0.625;
1;63;0.000;1.000;-3.600;σ_1,m;0.559;0.161;-16.56;-0.270;-0.687;71.24;-0.050;-0.068;42.40;0.134;
1;1;0.000;0.000;-3.600;σ_2,m;3.936;0.234;10.23;0.349;-1.444;89.15;1.306;0.231;19.39;0.625;
1;218;0.000;3.500;-3.600;σ_2,m;1.106;-0.023;-33.79;-0.191;-0.953;61.70;0.087;-0.117;-44.22;0.152;
1;7;3.000;0.000;-3.600;τ_max;0.044;-3.263;46.23;3.193;0.364;-43.09;0.216;-0.047;35.07;0.898;
1;117;11.500;1.500;-3.600;τ_max;0.399;-0.979;-88.05;1.267;-0.344;0.87;0.146;0.026;-5.42;0.006;
Total;;;;;;3.936;0.366;89.98;3.339;0.857;89.15;1.306;0.231;86.99;0.898;
1;;;;;;-0.795;-3.280;-89.94;-0.442;-1.566;-81.93;-0.050;-0.117;-85.20;0.006;
;;;;;;;;;;;;;;;;
;Total max/min values with corresponding values;;;;;;;;;;;;;;;
1;1;0.000;0.000;-3.600;σ_1,+;3.936;0.234;10.23;0.349;-1.444;89.15;1.306;0.231;19.39;0.625;
1;19;9.000;0.000;-3.600;σ_1,+;-0.795;-2.863;-83.69;3.228;0.857;3.84;0.192;0.022;-9.70;0.662;
1;216;14.500;3.000;-3.600;σ_2,+;0.587;0.366;13.25;-0.243;-0.546;76.09;0.104;-0.021;53.11;0.083;
1;25;12.000;0.000;-3.600;σ_2,+;0.063;-3.280;-46.90;3.218;0.357;41.90;0.223;-0.044;-34.86;0.885;
1;267;9.000;4.000;-3.600;σ_1,-;-0.676;-2.922;81.22;3.339;0.760;-5.64;0.223;0.028;7.67;0.667;
1;248;15.000;3.500;-3.600;σ_1,-;1.525;0.296;23.09;-0.442;-1.416;-75.80;0.097;-0.115;45.36;0.147;
1;19;9.000;0.000;-3.600;σ_2,-;-0.795;-2.863;-83.69;3.228;0.857;3.84;0.192;0.022;-9.70;0.662;
1;31;15.000;0.000;-3.600;σ_2,-;3.901;0.053;-14.29;0.392;-1.566;80.68;1.182;0.208;-19.29;0.524;
1;1;0.000;0.000;-3.600;σ_1,m;3.936;0.234;10.23;0.349;-1.444;89.15;1.306;0.231;19.39;0.625;
1;63;0.000;1.000;-3.600;σ_1,m;0.559;0.161;-16.56;-0.270;-0.687;71.24;-0.050;-0.068;42.40;0.134;
1;1;0.000;0.000;-3.600;σ_2,m;3.936;0.234;10.23;0.349;-1.444;89.15;1.306;0.231;19.39;0.625;
1;218;0.000;3.500;-3.600;σ_2,m;1.106;-0.023;-33.79;-0.191;-0.953;61.70;0.087;-0.117;-44.22;0.152;
1;7;3.000;0.000;-3.600;τ_max;0.044;-3.263;46.23;3.193;0.364;-43.09;0.216;-0.047;35.07;0.898;
1;117;11.500;1.500;-3.600;τ_max;0.399;-0.979;-88.05;1.267;-0.344;0.87;0.146;0.026;-5.42;0.006;
;;;;;;;;;;;;;;;;
Total;;;;;;3.936;0.366;89.98;3.339;0.857;89.15;1.306;0.231;86.99;0.898;
max/min;;;;;;-0.795;-3.280;-89.94;-0.442;-1.566;-81.93;-0.050;-0.117;-85.20;0.006;
