Surface No.;Grid;Grid Point Coordinates [m];;;;Equivalent Stresses - Bach [N/mm^2 ];;;;
;Point No.;X;Y;Z;;σ_eqv,Bach,Max;σ_eqv,Bach,+;σ_eqv,Bach,-;σ_eqv,Bach,m;Surface Comment
1;1;0.000;0.000;-3.600;;1.597;1.597;1.420;0.089;
1;2;0.500;0.000;-3.600;;0.577;0.577;0.477;0.051;
1;3;1.000;0.000;-3.600;;0.101;0.080;0.101;0.028;
1;4;1.500;0.000;-3.600;;0.279;0.251;0.279;0.014;
1;5;2.000;0.000;-3.600;;0.393;0.391;0.393;0.001;
1;6;2.500;0.000;-3.600;;0.483;0.483;0.453;0.016;
1;7;3.000;0.000;-3.600;;0.756;0.756;0.634;0.062;
1;8;3.500;0.000;-3.600;;0.214;0.214;0.144;0.047;
1;9;4.000;0.000;-3.600;;0.385;0.331;0.385;0.029;
1;10;4.500;0.000;-3.600;;0.503;0.461;0.503;0.021;
1;11;5.000;0.000;-3.600;;0.545;0.513;0.545;0.016;
1;12;5.500;0.000;-3.600;;0.483;0.464;0.483;0.011;
1;13;6.000;0.000;-3.600;;0.359;0.359;0.304;0.029;
1;14;6.500;0.000;-3.600;;0.252;0.189;0.252;0.035;
1;15;7.000;0.000;-3.600;;0.522;0.469;0.522;0.027;
1;16;7.500;0.000;-3.600;;0.580;0.530;0.580;0.025;
1;17;8.000;0.000;-3.600;;0.551;0.499;0.551;0.026;
1;18;8.500;0.000;-3.600;;0.334;0.272;0.334;0.032;
1;19;9.000;0.000;-3.600;;0.272;0.272;0.218;0.028;
1;20;9.500;0.000;-3.600;;0.402;0.378;0.402;0.013;
1;21;10.000;0.000;-3.600;;0.539;0.506;0.539;0.017;
1;22;10.500;0.000;-3.600;;0.530;0.488;0.530;0.021;
1;23;11.000;0.000;-3.600;;0.437;0.384;0.437;0.027;
1;24;11.500;0.000;-3.600;;0.133;0.095;0.133;0.045;
1;25;12.000;0.000;-3.600;;0.542;0.542;0.456;0.060;
1;26;12.500;0.000;-3.600;;0.435;0.435;0.408;0.014;
1;27;13.000;0.000;-3.600;;0.406;0.400;0.406;0.003;
1;28;13.500;0.000;-3.600;;0.327;0.301;0.327;0.013;
1;29;14.000;0.000;-3.600;;0.179;0.144;0.179;0.025;
1;30;14.500;0.000;-3.600;;0.465;0.465;0.372;0.050;
1;31;15.000;0.000;-3.600;;1.449;1.449;1.265;0.093;
1;32;0.000;0.500;-3.600;;0.725;0.725;0.720;0.009;
1;33;0.500;0.500;-3.600;;0.313;0.313;0.294;0.018;
1;34;1.000;0.500;-3.600;;0.103;0.081;0.103;0.022;
1;35;1.500;0.500;-3.600;;0.268;0.236;0.268;0.019;
1;36;2.000;0.500;-3.600;;0.368;0.344;0.368;0.015;
1;37;2.500;0.500;-3.600;;0.354;0.327;0.354;0.017;
1;38;3.000;0.500;-3.600;;0.317;0.311;0.302;0.020;
1;39;3.500;0.500;-3.600;;0.150;0.119;0.150;0.024;
1;40;4.000;0.500;-3.600;;0.352;0.301;0.352;0.026;
1;41;4.500;0.500;-3.600;;0.457;0.413;0.457;0.022;
1;42;5.000;0.500;-3.600;;0.488;0.449;0.488;0.021;
1;43;5.500;0.500;-3.600;;0.442;0.405;0.442;0.021;
1;44;6.000;0.500;-3.600;;0.170;0.153;0.170;0.021;
1;45;6.500;0.500;-3.600;;0.296;0.249;0.296;0.024;
1;46;7.000;0.500;-3.600;;0.474;0.423;0.474;0.026;
1;47;7.500;0.500;-3.600;;0.528;0.477;0.528;0.025;
1;48;8.000;0.500;-3.600;;0.497;0.446;0.497;0.026;
1;49;8.500;0.500;-3.600;;0.360;0.312;0.360;0.024;
1;50;9.000;0.500;-3.600;;0.137;0.121;0.137;0.021;
1;51;9.500;0.500;-3.600;;0.404;0.367;0.404;0.021;
1;52;10.000;0.500;-3.600;;0.487;0.447;0.487;0.021;
1;53;10.500;0.500;-3.600;;0.479;0.436;0.479;0.022;
1;54;11.000;0.500;-3.600;;0.393;0.343;0.393;0.025;
1;55;11.500;0.500;-3.600;;0.187;0.144;0.187;0.023;
1;56;12.000;0.500;-3.600;;0.237;0.234;0.223;0.019;
1;57;12.500;0.500;-3.600;;0.360;0.348;0.360;0.015;
1;58;13.000;0.500;-3.600;;0.353;0.337;0.353;0.014;
1;59;13.500;0.500;-3.600;;0.292;0.264;0.292;0.016;
1;60;14.000;0.500;-3.600;;0.184;0.148;0.184;0.021;
1;61;14.500;0.500;-3.600;;0.221;0.221;0.209;0.021;
1;62;15.000;0.500;-3.600;;0.632;0.632;0.624;0.013;
1;63;0.000;1.000;-3.600;;0.309;0.303;0.309;0.004;
1;64;0.500;1.000;-3.600;;0.216;0.203;0.216;0.009;
1;65;1.000;1.000;-3.600;;0.152;0.152;0.151;0.007;
1;66;1.500;1.000;-3.600;;0.312;0.277;0.312;0.019;
1;67;2.000;1.000;-3.600;;0.415;0.362;0.415;0.028;
1;68;2.500;1.000;-3.600;;0.234;0.204;0.234;0.020;
1;69;3.000;1.000;-3.600;;0.215;0.214;0.215;0.013;
1;70;3.500;1.000;-3.600;;0.209;0.191;0.209;0.017;
1;71;4.000;1.000;-3.600;;0.315;0.278;0.315;0.019;
1;72;4.500;1.000;-3.600;;0.402;0.361;0.402;0.020;
1;73;5.000;1.000;-3.600;;0.428;0.387;0.428;0.021;
1;74;5.500;1.000;-3.600;;0.389;0.349;0.389;0.021;
1;75;6.000;1.000;-3.600;;0.268;0.237;0.268;0.021;
1;76;6.500;1.000;-3.600;;0.322;0.279;0.322;0.022;
1;77;7.000;1.000;-3.600;;0.425;0.380;0.425;0.023;
1;78;7.500;1.000;-3.600;;0.471;0.424;0.471;0.024;
1;79;8.000;1.000;-3.600;;0.443;0.397;0.443;0.023;
1;80;8.500;1.000;-3.600;;0.356;0.312;0.356;0.022;
1;81;9.000;1.000;-3.600;;0.272;0.237;0.272;0.021;
1;82;9.500;1.000;-3.600;;0.376;0.336;0.376;0.021;
1;83;10.000;1.000;-3.600;;0.431;0.391;0.431;0.021;
1;84;10.500;1.000;-3.600;;0.424;0.383;0.424;0.021;
1;85;11.000;1.000;-3.600;;0.347;0.309;0.347;0.019;
1;86;11.500;1.000;-3.600;;0.219;0.191;0.219;0.016;
1;87;12.000;1.000;-3.600;;0.211;0.208;0.211;0.014;
1;88;12.500;1.000;-3.600;;0.292;0.276;0.292;0.015;
1;89;13.000;1.000;-3.600;;0.294;0.273;0.294;0.014;
1;90;13.500;1.000;-3.600;;0.244;0.217;0.244;0.014;
1;91;14.000;1.000;-3.600;;0.214;0.196;0.214;0.013;
1;92;14.500;1.000;-3.600;;0.209;0.198;0.209;0.010;
1;93;15.000;1.000;-3.600;;0.249;0.245;0.249;0.004;
1;94;0.000;1.500;-3.600;;0.283;0.283;0.276;0.005;
1;95;0.500;1.500;-3.600;;0.313;0.306;0.313;0.007;
1;96;1.000;1.500;-3.600;;0.360;0.349;0.360;0.007;
1;98;2.000;1.500;-3.600;;0.501;0.501;0.491;0.007;
1;99;2.500;1.500;-3.600;;0.306;0.306;0.304;0.006;
1;100;3.000;1.500;-3.600;;0.271;0.270;0.271;0.012;
1;101;3.500;1.500;-3.600;;0.270;0.262;0.270;0.013;
1;102;4.000;1.500;-3.600;;0.297;0.272;0.297;0.016;
1;103;4.500;1.500;-3.600;;0.364;0.328;0.364;0.018;
1;104;5.000;1.500;-3.600;;0.392;0.353;0.392;0.020;
1;105;5.500;1.500;-3.600;;0.373;0.333;0.373;0.021;
1;106;6.000;1.500;-3.600;;0.313;0.276;0.313;0.020;
1;107;6.500;1.500;-3.600;;0.343;0.301;0.343;0.021;
1;108;7.000;1.500;-3.600;;0.403;0.360;0.403;0.022;
1;109;7.500;1.500;-3.600;;0.434;0.390;0.434;0.022;
1;110;8.000;1.500;-3.600;;0.417;0.373;0.417;0.022;
1;111;8.500;1.500;-3.600;;0.366;0.324;0.366;0.021;
1;112;9.000;1.500;-3.600;;0.323;0.284;0.323;0.021;
1;113;9.500;1.500;-3.600;;0.373;0.332;0.373;0.021;
1;114;10.000;1.500;-3.600;;0.401;0.361;0.401;0.020;
1;115;10.500;1.500;-3.600;;0.386;0.349;0.386;0.019;
1;116;11.000;1.500;-3.600;;0.327;0.294;0.327;0.017;
1;117;11.500;1.500;-3.600;;0.259;0.252;0.259;0.015;
1;118;12.000;1.500;-3.600;;0.255;0.252;0.255;0.013;
1;119;12.500;1.500;-3.600;;0.268;0.259;0.268;0.013;
1;120;13.000;1.500;-3.600;;0.252;0.242;0.252;0.012;
1;121;13.500;1.500;-3.600;;0.243;0.235;0.243;0.009;
1;122;14.000;1.500;-3.600;;0.267;0.258;0.267;0.007;
1;123;14.500;1.500;-3.600;;0.282;0.277;0.282;0.004;
1;124;15.000;1.500;-3.600;;0.272;0.272;0.264;0.004;
1;125;0.000;2.000;-3.600;;0.295;0.295;0.288;0.004;
1;126;0.500;2.000;-3.600;;0.334;0.330;0.334;0.005;
1;127;1.000;2.000;-3.600;;0.352;0.330;0.352;0.013;
1;128;1.500;2.000;-3.600;;0.375;0.350;0.375;0.013;
1;129;2.000;2.000;-3.600;;0.417;0.409;0.417;0.011;
1;130;2.500;2.000;-3.600;;0.305;0.302;0.305;0.009;
1;131;3.000;2.000;-3.600;;0.286;0.284;0.286;0.010;
1;132;3.500;2.000;-3.600;;0.290;0.285;0.290;0.012;
1;133;4.000;2.000;-3.600;;0.281;0.271;0.281;0.015;
1;134;4.500;2.000;-3.600;;0.349;0.315;0.349;0.017;
1;135;5.000;2.000;-3.600;;0.381;0.343;0.381;0.019;
1;136;5.500;2.000;-3.600;;0.370;0.330;0.370;0.020;
1;137;6.000;2.000;-3.600;;0.323;0.283;0.323;0.020;
1;138;6.500;2.000;-3.600;;0.349;0.308;0.349;0.021;
1;139;7.000;2.000;-3.600;;0.397;0.354;0.397;0.022;
1;140;7.500;2.000;-3.600;;0.423;0.379;0.423;0.022;
1;141;8.000;2.000;-3.600;;0.410;0.367;0.410;0.022;
1;142;8.500;2.000;-3.600;;0.370;0.328;0.370;0.021;
1;143;9.000;2.000;-3.600;;0.334;0.292;0.334;0.021;
1;144;9.500;2.000;-3.600;;0.372;0.331;0.372;0.021;
1;145;10.000;2.000;-3.600;;0.392;0.352;0.392;0.020;
1;146;10.500;2.000;-3.600;;0.375;0.339;0.375;0.018;
1;147;11.000;2.000;-3.600;;0.320;0.288;0.320;0.016;
1;148;11.500;2.000;-3.600;;0.279;0.276;0.279;0.014;
1;149;12.000;2.000;-3.600;;0.273;0.272;0.273;0.013;
1;150;12.500;2.000;-3.600;;0.267;0.267;0.265;0.012;
1;151;13.000;2.000;-3.600;;0.254;0.254;0.252;0.010;
1;152;13.500;2.000;-3.600;;0.265;0.263;0.265;0.006;
1;153;14.000;2.000;-3.600;;0.290;0.284;0.290;0.003;
1;154;14.500;2.000;-3.600;;0.303;0.300;0.303;0.001;
1;155;15.000;2.000;-3.600;;0.288;0.288;0.279;0.004;
1;156;0.000;2.500;-3.600;;0.271;0.271;0.264;0.004;
1;157;0.500;2.500;-3.600;;0.286;0.280;0.286;0.005;
1;158;1.000;2.500;-3.600;;0.225;0.215;0.225;0.007;
1;159;1.500;2.500;-3.600;;0.218;0.201;0.218;0.009;
1;160;2.000;2.500;-3.600;;0.270;0.248;0.270;0.012;
1;161;2.500;2.500;-3.600;;0.247;0.238;0.247;0.014;
1;162;3.000;2.500;-3.600;;0.259;0.257;0.259;0.012;
1;163;3.500;2.500;-3.600;;0.266;0.260;0.266;0.014;
1;164;4.000;2.500;-3.600;;0.286;0.258;0.286;0.016;
1;165;4.500;2.500;-3.600;;0.360;0.324;0.360;0.018;
1;166;5.000;2.500;-3.600;;0.392;0.353;0.392;0.020;
1;167;5.500;2.500;-3.600;;0.374;0.335;0.374;0.021;
1;168;6.000;2.500;-3.600;;0.316;0.280;0.316;0.021;
1;169;6.500;2.500;-3.600;;0.341;0.299;0.341;0.021;
1;170;7.000;2.500;-3.600;;0.401;0.357;0.401;0.022;
1;171;7.500;2.500;-3.600;;0.433;0.389;0.433;0.022;
1;172;8.000;2.500;-3.600;;0.417;0.373;0.417;0.022;
1;173;8.500;2.500;-3.600;;0.366;0.324;0.366;0.021;
1;174;9.000;2.500;-3.600;;0.321;0.282;0.321;0.021;
1;175;9.500;2.500;-3.600;;0.372;0.330;0.372;0.021;
1;176;10.000;2.500;-3.600;;0.400;0.360;0.400;0.021;
1;177;10.500;2.500;-3.600;;0.387;0.349;0.387;0.019;
1;178;11.000;2.500;-3.600;;0.329;0.296;0.329;0.017;
1;179;11.500;2.500;-3.600;;0.263;0.254;0.263;0.015;
1;180;12.000;2.500;-3.600;;0.254;0.251;0.254;0.014;
1;181;12.500;2.500;-3.600;;0.264;0.255;0.264;0.013;
1;182;13.000;2.500;-3.600;;0.250;0.238;0.250;0.012;
1;183;13.500;2.500;-3.600;;0.246;0.237;0.246;0.009;
1;184;14.000;2.500;-3.600;;0.268;0.259;0.268;0.007;
1;185;14.500;2.500;-3.600;;0.282;0.277;0.282;0.004;
1;186;15.000;2.500;-3.600;;0.272;0.272;0.264;0.004;
1;187;0.000;3.000;-3.600;;0.296;0.293;0.296;0.004;
1;188;0.500;3.000;-3.600;;0.203;0.192;0.203;0.010;
1;189;1.000;3.000;-3.600;;0.183;0.169;0.183;0.011;
1;190;1.500;3.000;-3.600;;0.209;0.184;0.209;0.012;
1;191;2.000;3.000;-3.600;;0.279;0.255;0.279;0.014;
1;192;2.500;3.000;-3.600;;0.282;0.261;0.282;0.015;
1;193;3.000;3.000;-3.600;;0.211;0.206;0.211;0.014;
1;194;3.500;3.000;-3.600;;0.199;0.184;0.199;0.017;
1;195;4.000;3.000;-3.600;;0.308;0.271;0.308;0.019;
1;196;4.500;3.000;-3.600;;0.399;0.359;0.399;0.020;
1;197;5.000;3.000;-3.600;;0.427;0.387;0.427;0.021;
1;198;5.500;3.000;-3.600;;0.389;0.351;0.389;0.021;
1;199;6.000;3.000;-3.600;;0.271;0.240;0.271;0.021;
1;200;6.500;3.000;-3.600;;0.318;0.275;0.318;0.022;
1;201;7.000;3.000;-3.600;;0.422;0.376;0.422;0.023;
1;202;7.500;3.000;-3.600;;0.470;0.422;0.470;0.024;
1;203;8.000;3.000;-3.600;;0.443;0.397;0.443;0.023;
1;204;8.500;3.000;-3.600;;0.356;0.313;0.356;0.022;
1;205;9.000;3.000;-3.600;;0.269;0.235;0.269;0.021;
1;206;9.500;3.000;-3.600;;0.375;0.334;0.375;0.022;
1;207;10.000;3.000;-3.600;;0.431;0.389;0.431;0.022;
1;208;10.500;3.000;-3.600;;0.424;0.383;0.424;0.021;
1;209;11.000;3.000;-3.600;;0.349;0.310;0.349;0.019;
1;210;11.500;3.000;-3.600;;0.224;0.196;0.224;0.017;
1;211;12.000;3.000;-3.600;;0.210;0.207;0.210;0.014;
1;212;12.500;3.000;-3.600;;0.290;0.273;0.290;0.015;
1;213;13.000;3.000;-3.600;;0.294;0.272;0.294;0.015;
1;214;13.500;3.000;-3.600;;0.247;0.219;0.247;0.014;
1;215;14.000;3.000;-3.600;;0.218;0.199;0.218;0.013;
1;216;14.500;3.000;-3.600;;0.211;0.199;0.211;0.010;
1;217;15.000;3.000;-3.600;;0.250;0.246;0.250;0.004;
1;218;0.000;3.500;-3.600;;0.718;0.718;0.709;0.012;
1;219;0.500;3.500;-3.600;;0.283;0.283;0.270;0.019;
1;220;1.000;3.500;-3.600;;0.150;0.123;0.150;0.019;
1;221;1.500;3.500;-3.600;;0.254;0.227;0.254;0.014;
1;222;2.000;3.500;-3.600;;0.335;0.318;0.335;0.013;
1;223;2.500;3.500;-3.600;;0.373;0.359;0.373;0.015;
1;224;3.000;3.500;-3.600;;0.321;0.316;0.305;0.019;
1;225;3.500;3.500;-3.600;;0.142;0.112;0.142;0.024;
1;226;4.000;3.500;-3.600;;0.349;0.299;0.349;0.025;
1;227;4.500;3.500;-3.600;;0.455;0.412;0.455;0.022;
1;228;5.000;3.500;-3.600;;0.487;0.448;0.487;0.021;
1;229;5.500;3.500;-3.600;;0.440;0.404;0.440;0.021;
1;230;6.000;3.500;-3.600;;0.180;0.164;0.180;0.021;
1;231;6.500;3.500;-3.600;;0.298;0.250;0.298;0.024;
1;232;7.000;3.500;-3.600;;0.472;0.420;0.472;0.026;
1;233;7.500;3.500;-3.600;;0.527;0.475;0.527;0.026;
1;234;8.000;3.500;-3.600;;0.497;0.444;0.497;0.026;
1;235;8.500;3.500;-3.600;;0.360;0.312;0.360;0.025;
1;236;9.000;3.500;-3.600;;0.137;0.120;0.137;0.022;
1;237;9.500;3.500;-3.600;;0.404;0.365;0.404;0.021;
1;238;10.000;3.500;-3.600;;0.486;0.446;0.486;0.021;
1;239;10.500;3.500;-3.600;;0.480;0.435;0.480;0.023;
1;240;11.000;3.500;-3.600;;0.394;0.344;0.394;0.025;
1;241;11.500;3.500;-3.600;;0.189;0.146;0.189;0.024;
1;242;12.000;3.500;-3.600;;0.241;0.237;0.226;0.019;
1;243;12.500;3.500;-3.600;;0.360;0.347;0.360;0.016;
1;244;13.000;3.500;-3.600;;0.353;0.336;0.353;0.014;
1;245;13.500;3.500;-3.600;;0.294;0.264;0.294;0.016;
1;246;14.000;3.500;-3.600;;0.188;0.151;0.188;0.021;
1;247;14.500;3.500;-3.600;;0.226;0.226;0.214;0.021;
1;248;15.000;3.500;-3.600;;0.636;0.636;0.628;0.013;
1;249;0.000;4.000;-3.600;;1.593;1.593;1.424;0.086;
1;250;0.500;4.000;-3.600;;0.548;0.548;0.462;0.045;
1;251;1.000;4.000;-3.600;;0.129;0.108;0.129;0.022;
1;252;1.500;4.000;-3.600;;0.282;0.259;0.282;0.012;
1;253;2.000;4.000;-3.600;;0.386;0.380;0.386;0.003;
1;254;2.500;4.000;-3.600;;0.477;0.477;0.452;0.013;
1;255;3.000;4.000;-3.600;;0.717;0.717;0.598;0.060;
1;256;3.500;4.000;-3.600;;0.196;0.196;0.128;0.046;
1;257;4.000;4.000;-3.600;;0.389;0.336;0.389;0.028;
1;258;4.500;4.000;-3.600;;0.504;0.462;0.504;0.021;
1;259;5.000;4.000;-3.600;;0.542;0.509;0.542;0.016;
1;260;5.500;4.000;-3.600;;0.471;0.450;0.471;0.012;
1;261;6.000;4.000;-3.600;;0.372;0.372;0.319;0.029;
1;262;6.500;4.000;-3.600;;0.248;0.187;0.248;0.034;
1;263;7.000;4.000;-3.600;;0.523;0.470;0.523;0.027;
1;264;7.500;4.000;-3.600;;0.579;0.528;0.579;0.025;
1;265;8.000;4.000;-3.600;;0.548;0.495;0.548;0.027;
1;266;8.500;4.000;-3.600;;0.324;0.260;0.324;0.034;
1;267;9.000;4.000;-3.600;;0.292;0.292;0.236;0.029;
1;268;9.500;4.000;-3.600;;0.407;0.383;0.407;0.013;
1;269;10.000;4.000;-3.600;;0.541;0.506;0.541;0.017;
1;270;10.500;4.000;-3.600;;0.530;0.486;0.530;0.022;
1;271;11.000;4.000;-3.600;;0.436;0.381;0.436;0.028;
1;272;11.500;4.000;-3.600;;0.135;0.105;0.135;0.046;
1;273;12.000;4.000;-3.600;;0.553;0.553;0.460;0.061;
1;274;12.500;4.000;-3.600;;0.438;0.438;0.411;0.015;
1;275;13.000;4.000;-3.600;;0.407;0.400;0.407;0.003;
1;276;13.500;4.000;-3.600;;0.327;0.300;0.327;0.014;
1;277;14.000;4.000;-3.600;;0.180;0.144;0.180;0.026;
1;278;14.500;4.000;-3.600;;0.471;0.471;0.376;0.051;
1;279;15.000;4.000;-3.600;;1.462;1.462;1.274;0.095;
Extremes;1;0.000;0.000;-3.600;σ_eqv,Bach,Max;1.597;1.597;1.420;0.089;
1;3;1.000;0.000;-3.600;σ_eqv,Bach,Max;0.101;0.080;0.101;0.028;
1;1;0.000;0.000;-3.600;σ_eqv,Bach,+;1.597;1.597;1.420;0.089;
1;3;1.000;0.000;-3.600;σ_eqv,Bach,+;0.101;0.080;0.101;0.028;
1;249;0.000;4.000;-3.600;σ_eqv,Bach,-;1.593;1.593;1.424;0.086;
1;3;1.000;0.000;-3.600;σ_eqv,Bach,-;0.101;0.080;0.101;0.028;
1;279;15.000;4.000;-3.600;σ_eqv,Bach,m;1.462;1.462;1.274;0.095;
1;5;2.000;0.000;-3.600;σ_eqv,Bach,m;0.393;0.391;0.393;0.001;
Total;;;;;;1.597;1.597;1.424;0.095;
1;;;;;;0.101;0.080;0.101;0.001;
;;;;;;;;;;
;Total max/min values with corresponding values;;;;;;;;;
1;1;0.000;0.000;-3.600;σ_eqv,Bach,Max;1.597;1.597;1.420;0.089;
1;3;1.000;0.000;-3.600;σ_eqv,Bach,Max;0.101;0.080;0.101;0.028;
1;1;0.000;0.000;-3.600;σ_eqv,Bach,+;1.597;1.597;1.420;0.089;
1;3;1.000;0.000;-3.600;σ_eqv,Bach,+;0.101;0.080;0.101;0.028;
1;249;0.000;4.000;-3.600;σ_eqv,Bach,-;1.593;1.593;1.424;0.086;
1;3;1.000;0.000;-3.600;σ_eqv,Bach,-;0.101;0.080;0.101;0.028;
1;279;15.000;4.000;-3.600;σ_eqv,Bach,m;1.462;1.462;1.274;0.095;
1;5;2.000;0.000;-3.600;σ_eqv,Bach,m;0.393;0.391;0.393;0.001;
;;;;;;;;;;
Total;;;;;;1.597;1.597;1.424;0.095;
max/min;;;;;;0.101;0.080;0.101;0.001;
