Surface No.;Grid;Grid Point Coordinates [m];;;;Equivalent Stresses - von Mises [N/mm^2 ];;;;
;Point No.;X;Y;Z;;σ_eqv,Mises,Max;σ_eqv,Mises,+;σ_eqv,Mises,-;σ_eqv,Mises,m;Surface Comment
1;1;0.000;0.000;-3.600;;1.548;1.548;1.380;0.085;
1;2;0.500;0.000;-3.600;;0.588;0.588;0.490;0.051;
1;3;1.000;0.000;-3.600;;0.103;0.097;0.103;0.028;
1;4;1.500;0.000;-3.600;;0.279;0.251;0.279;0.014;
1;5;2.000;0.000;-3.600;;0.387;0.385;0.387;0.001;
1;6;2.500;0.000;-3.600;;0.478;0.478;0.450;0.015;
1;7;3.000;0.000;-3.600;;0.771;0.771;0.657;0.060;
1;8;3.500;0.000;-3.600;;0.242;0.242;0.188;0.047;
1;9;4.000;0.000;-3.600;;0.382;0.329;0.382;0.029;
1;10;4.500;0.000;-3.600;;0.499;0.457;0.499;0.021;
1;11;5.000;0.000;-3.600;;0.539;0.507;0.539;0.016;
1;12;5.500;0.000;-3.600;;0.480;0.460;0.480;0.012;
1;13;6.000;0.000;-3.600;;0.359;0.359;0.308;0.028;
1;14;6.500;0.000;-3.600;;0.254;0.193;0.254;0.035;
1;15;7.000;0.000;-3.600;;0.517;0.464;0.517;0.027;
1;16;7.500;0.000;-3.600;;0.575;0.525;0.575;0.025;
1;17;8.000;0.000;-3.600;;0.545;0.494;0.545;0.026;
1;18;8.500;0.000;-3.600;;0.331;0.270;0.331;0.032;
1;19;9.000;0.000;-3.600;;0.264;0.264;0.214;0.027;
1;20;9.500;0.000;-3.600;;0.399;0.375;0.399;0.014;
1;21;10.000;0.000;-3.600;;0.534;0.500;0.534;0.017;
1;22;10.500;0.000;-3.600;;0.525;0.483;0.525;0.021;
1;23;11.000;0.000;-3.600;;0.433;0.380;0.433;0.027;
1;24;11.500;0.000;-3.600;;0.147;0.136;0.147;0.044;
1;25;12.000;0.000;-3.600;;0.565;0.565;0.460;0.057;
1;26;12.500;0.000;-3.600;;0.432;0.432;0.406;0.014;
1;27;13.000;0.000;-3.600;;0.400;0.394;0.400;0.003;
1;28;13.500;0.000;-3.600;;0.323;0.297;0.323;0.013;
1;29;14.000;0.000;-3.600;;0.178;0.147;0.178;0.025;
1;30;14.500;0.000;-3.600;;0.479;0.479;0.390;0.050;
1;31;15.000;0.000;-3.600;;1.397;1.397;1.222;0.089;
1;32;0.000;0.500;-3.600;;0.721;0.721;0.716;0.012;
1;33;0.500;0.500;-3.600;;0.328;0.328;0.315;0.018;
1;34;1.000;0.500;-3.600;;0.104;0.085;0.104;0.024;
1;35;1.500;0.500;-3.600;;0.258;0.226;0.258;0.021;
1;36;2.000;0.500;-3.600;;0.352;0.329;0.352;0.015;
1;37;2.500;0.500;-3.600;;0.334;0.309;0.334;0.019;
1;38;3.000;0.500;-3.600;;0.319;0.312;0.305;0.020;
1;39;3.500;0.500;-3.600;;0.146;0.119;0.146;0.024;
1;40;4.000;0.500;-3.600;;0.336;0.286;0.336;0.026;
1;41;4.500;0.500;-3.600;;0.435;0.392;0.435;0.022;
1;42;5.000;0.500;-3.600;;0.464;0.426;0.464;0.021;
1;43;5.500;0.500;-3.600;;0.418;0.383;0.418;0.021;
1;44;6.000;0.500;-3.600;;0.177;0.161;0.168;0.020;
1;45;6.500;0.500;-3.600;;0.280;0.235;0.280;0.024;
1;46;7.000;0.500;-3.600;;0.452;0.401;0.452;0.026;
1;47;7.500;0.500;-3.600;;0.503;0.453;0.503;0.025;
1;48;8.000;0.500;-3.600;;0.473;0.423;0.473;0.025;
1;49;8.500;0.500;-3.600;;0.340;0.295;0.340;0.023;
1;50;9.000;0.500;-3.600;;0.142;0.123;0.142;0.020;
1;51;9.500;0.500;-3.600;;0.383;0.347;0.383;0.021;
1;52;10.000;0.500;-3.600;;0.463;0.425;0.463;0.021;
1;53;10.500;0.500;-3.600;;0.456;0.414;0.456;0.022;
1;54;11.000;0.500;-3.600;;0.373;0.325;0.373;0.025;
1;55;11.500;0.500;-3.600;;0.177;0.136;0.177;0.023;
1;56;12.000;0.500;-3.600;;0.248;0.242;0.235;0.018;
1;57;12.500;0.500;-3.600;;0.341;0.329;0.341;0.017;
1;58;13.000;0.500;-3.600;;0.334;0.319;0.334;0.015;
1;59;13.500;0.500;-3.600;;0.276;0.249;0.276;0.017;
1;60;14.000;0.500;-3.600;;0.177;0.141;0.177;0.022;
1;61;14.500;0.500;-3.600;;0.247;0.247;0.244;0.022;
1;62;15.000;0.500;-3.600;;0.631;0.631;0.621;0.017;
1;63;0.000;1.000;-3.600;;0.383;0.380;0.383;0.004;
1;64;0.500;1.000;-3.600;;0.296;0.281;0.296;0.011;
1;65;1.000;1.000;-3.600;;0.150;0.150;0.150;0.009;
1;66;1.500;1.000;-3.600;;0.306;0.271;0.306;0.020;
1;67;2.000;1.000;-3.600;;0.397;0.345;0.397;0.028;
1;68;2.500;1.000;-3.600;;0.259;0.242;0.259;0.022;
1;69;3.000;1.000;-3.600;;0.219;0.213;0.218;0.013;
1;70;3.500;1.000;-3.600;;0.211;0.190;0.211;0.016;
1;71;4.000;1.000;-3.600;;0.307;0.275;0.307;0.018;
1;72;4.500;1.000;-3.600;;0.386;0.350;0.386;0.020;
1;73;5.000;1.000;-3.600;;0.410;0.375;0.410;0.021;
1;74;5.500;1.000;-3.600;;0.379;0.346;0.379;0.021;
1;75;6.000;1.000;-3.600;;0.289;0.261;0.289;0.020;
1;76;6.500;1.000;-3.600;;0.323;0.288;0.323;0.021;
1;77;7.000;1.000;-3.600;;0.408;0.367;0.408;0.022;
1;78;7.500;1.000;-3.600;;0.449;0.406;0.449;0.023;
1;79;8.000;1.000;-3.600;;0.424;0.383;0.424;0.022;
1;80;8.500;1.000;-3.600;;0.352;0.316;0.352;0.021;
1;81;9.000;1.000;-3.600;;0.295;0.266;0.295;0.020;
1;82;9.500;1.000;-3.600;;0.368;0.335;0.368;0.021;
1;83;10.000;1.000;-3.600;;0.413;0.378;0.413;0.021;
1;84;10.500;1.000;-3.600;;0.406;0.370;0.406;0.020;
1;85;11.000;1.000;-3.600;;0.338;0.306;0.338;0.018;
1;86;11.500;1.000;-3.600;;0.242;0.217;0.242;0.016;
1;87;12.000;1.000;-3.600;;0.231;0.219;0.231;0.013;
1;88;12.500;1.000;-3.600;;0.296;0.281;0.296;0.016;
1;89;13.000;1.000;-3.600;;0.295;0.279;0.295;0.015;
1;90;13.500;1.000;-3.600;;0.250;0.232;0.250;0.015;
1;91;14.000;1.000;-3.600;;0.203;0.186;0.203;0.014;
1;92;14.500;1.000;-3.600;;0.238;0.228;0.238;0.011;
1;93;15.000;1.000;-3.600;;0.332;0.332;0.331;0.003;
1;94;0.000;1.500;-3.600;;0.349;0.349;0.345;0.005;
1;95;0.500;1.500;-3.600;;0.341;0.333;0.341;0.008;
1;96;1.000;1.500;-3.600;;0.361;0.348;0.361;0.009;
1;98;2.000;1.500;-3.600;;0.505;0.505;0.497;0.006;
1;99;2.500;1.500;-3.600;;0.298;0.298;0.298;0.007;
1;100;3.000;1.500;-3.600;;0.268;0.261;0.268;0.011;
1;101;3.500;1.500;-3.600;;0.284;0.268;0.284;0.012;
1;102;4.000;1.500;-3.600;;0.328;0.306;0.328;0.015;
1;103;4.500;1.500;-3.600;;0.379;0.351;0.379;0.017;
1;104;5.000;1.500;-3.600;;0.402;0.372;0.402;0.019;
1;105;5.500;1.500;-3.600;;0.392;0.362;0.392;0.020;
1;106;6.000;1.500;-3.600;;0.351;0.323;0.351;0.020;
1;107;6.500;1.500;-3.600;;0.374;0.343;0.374;0.020;
1;108;7.000;1.500;-3.600;;0.414;0.379;0.414;0.021;
1;109;7.500;1.500;-3.600;;0.436;0.400;0.436;0.021;
1;110;8.000;1.500;-3.600;;0.425;0.390;0.425;0.021;
1;111;8.500;1.500;-3.600;;0.390;0.358;0.390;0.020;
1;112;9.000;1.500;-3.600;;0.359;0.330;0.359;0.020;
1;113;9.500;1.500;-3.600;;0.392;0.362;0.392;0.020;
1;114;10.000;1.500;-3.600;;0.410;0.379;0.410;0.020;
1;115;10.500;1.500;-3.600;;0.398;0.369;0.398;0.018;
1;116;11.000;1.500;-3.600;;0.356;0.331;0.356;0.016;
1;117;11.500;1.500;-3.600;;0.309;0.289;0.309;0.014;
1;118;12.000;1.500;-3.600;;0.288;0.273;0.288;0.013;
1;119;12.500;1.500;-3.600;;0.311;0.297;0.311;0.013;
1;120;13.000;1.500;-3.600;;0.301;0.290;0.301;0.012;
1;121;13.500;1.500;-3.600;;0.270;0.260;0.270;0.009;
1;122;14.000;1.500;-3.600;;0.254;0.245;0.254;0.007;
1;123;14.500;1.500;-3.600;;0.280;0.276;0.280;0.004;
1;124;15.000;1.500;-3.600;;0.304;0.304;0.298;0.004;
1;125;0.000;2.000;-3.600;;0.332;0.332;0.326;0.004;
1;126;0.500;2.000;-3.600;;0.348;0.347;0.348;0.005;
1;127;1.000;2.000;-3.600;;0.347;0.330;0.347;0.012;
1;128;1.500;2.000;-3.600;;0.376;0.352;0.376;0.013;
1;129;2.000;2.000;-3.600;;0.397;0.389;0.397;0.013;
1;130;2.500;2.000;-3.600;;0.305;0.298;0.305;0.009;
1;131;3.000;2.000;-3.600;;0.285;0.278;0.285;0.009;
1;132;3.500;2.000;-3.600;;0.307;0.293;0.307;0.011;
1;133;4.000;2.000;-3.600;;0.342;0.322;0.342;0.014;
1;134;4.500;2.000;-3.600;;0.382;0.358;0.382;0.016;
1;135;5.000;2.000;-3.600;;0.405;0.377;0.405;0.019;
1;136;5.500;2.000;-3.600;;0.400;0.371;0.400;0.020;
1;137;6.000;2.000;-3.600;;0.369;0.341;0.369;0.020;
1;138;6.500;2.000;-3.600;;0.391;0.362;0.391;0.020;
1;139;7.000;2.000;-3.600;;0.421;0.389;0.421;0.021;
1;140;7.500;2.000;-3.600;;0.439;0.405;0.439;0.021;
1;141;8.000;2.000;-3.600;;0.430;0.397;0.430;0.021;
1;142;8.500;2.000;-3.600;;0.404;0.374;0.404;0.020;
1;143;9.000;2.000;-3.600;;0.377;0.348;0.377;0.020;
1;144;9.500;2.000;-3.600;;0.403;0.374;0.403;0.020;
1;145;10.000;2.000;-3.600;;0.414;0.385;0.414;0.019;
1;146;10.500;2.000;-3.600;;0.402;0.375;0.402;0.018;
1;147;11.000;2.000;-3.600;;0.368;0.345;0.368;0.015;
1;148;11.500;2.000;-3.600;;0.330;0.312;0.330;0.014;
1;149;12.000;2.000;-3.600;;0.305;0.291;0.305;0.013;
1;150;12.500;2.000;-3.600;;0.321;0.308;0.321;0.012;
1;151;13.000;2.000;-3.600;;0.310;0.299;0.310;0.010;
1;152;13.500;2.000;-3.600;;0.285;0.277;0.285;0.006;
1;153;14.000;2.000;-3.600;;0.276;0.270;0.276;0.004;
1;154;14.500;2.000;-3.600;;0.295;0.293;0.295;0.001;
1;155;15.000;2.000;-3.600;;0.307;0.307;0.299;0.004;
1;156;0.000;2.500;-3.600;;0.323;0.323;0.318;0.004;
1;157;0.500;2.500;-3.600;;0.306;0.302;0.306;0.004;
1;158;1.000;2.500;-3.600;;0.212;0.203;0.212;0.007;
1;159;1.500;2.500;-3.600;;0.224;0.211;0.224;0.009;
1;160;2.000;2.500;-3.600;;0.275;0.260;0.275;0.013;
1;161;2.500;2.500;-3.600;;0.281;0.269;0.281;0.014;
1;162;3.000;2.500;-3.600;;0.267;0.258;0.267;0.012;
1;163;3.500;2.500;-3.600;;0.285;0.269;0.285;0.013;
1;164;4.000;2.500;-3.600;;0.327;0.305;0.327;0.015;
1;165;4.500;2.500;-3.600;;0.377;0.350;0.377;0.017;
1;166;5.000;2.500;-3.600;;0.401;0.372;0.401;0.019;
1;167;5.500;2.500;-3.600;;0.392;0.362;0.392;0.020;
1;168;6.000;2.500;-3.600;;0.352;0.324;0.352;0.020;
1;169;6.500;2.500;-3.600;;0.374;0.343;0.374;0.020;
1;170;7.000;2.500;-3.600;;0.413;0.379;0.413;0.021;
1;171;7.500;2.500;-3.600;;0.436;0.400;0.436;0.022;
1;172;8.000;2.500;-3.600;;0.424;0.389;0.424;0.021;
1;173;8.500;2.500;-3.600;;0.390;0.358;0.390;0.021;
1;174;9.000;2.500;-3.600;;0.359;0.330;0.359;0.020;
1;175;9.500;2.500;-3.600;;0.392;0.362;0.392;0.020;
1;176;10.000;2.500;-3.600;;0.410;0.378;0.410;0.020;
1;177;10.500;2.500;-3.600;;0.398;0.369;0.398;0.018;
1;178;11.000;2.500;-3.600;;0.356;0.331;0.356;0.016;
1;179;11.500;2.500;-3.600;;0.309;0.289;0.309;0.014;
1;180;12.000;2.500;-3.600;;0.287;0.273;0.287;0.013;
1;181;12.500;2.500;-3.600;;0.311;0.297;0.311;0.013;
1;182;13.000;2.500;-3.600;;0.301;0.289;0.301;0.012;
1;183;13.500;2.500;-3.600;;0.270;0.261;0.270;0.009;
1;184;14.000;2.500;-3.600;;0.255;0.246;0.255;0.007;
1;185;14.500;2.500;-3.600;;0.282;0.277;0.282;0.004;
1;186;15.000;2.500;-3.600;;0.305;0.305;0.299;0.004;
1;187;0.000;3.000;-3.600;;0.374;0.374;0.373;0.004;
1;188;0.500;3.000;-3.600;;0.261;0.255;0.261;0.011;
1;189;1.000;3.000;-3.600;;0.173;0.160;0.173;0.012;
1;190;1.500;3.000;-3.600;;0.213;0.196;0.213;0.012;
1;191;2.000;3.000;-3.600;;0.274;0.255;0.274;0.015;
1;192;2.500;3.000;-3.600;;0.283;0.266;0.283;0.017;
1;193;3.000;3.000;-3.600;;0.227;0.218;0.226;0.013;
1;194;3.500;3.000;-3.600;;0.210;0.190;0.210;0.016;
1;195;4.000;3.000;-3.600;;0.304;0.273;0.304;0.018;
1;196;4.500;3.000;-3.600;;0.384;0.349;0.384;0.020;
1;197;5.000;3.000;-3.600;;0.409;0.374;0.409;0.021;
1;198;5.500;3.000;-3.600;;0.379;0.346;0.379;0.021;
1;199;6.000;3.000;-3.600;;0.290;0.262;0.290;0.020;
1;200;6.500;3.000;-3.600;;0.323;0.287;0.323;0.021;
1;201;7.000;3.000;-3.600;;0.406;0.365;0.406;0.023;
1;202;7.500;3.000;-3.600;;0.448;0.405;0.448;0.023;
1;203;8.000;3.000;-3.600;;0.424;0.383;0.424;0.023;
1;204;8.500;3.000;-3.600;;0.352;0.315;0.352;0.021;
1;205;9.000;3.000;-3.600;;0.294;0.265;0.294;0.020;
1;206;9.500;3.000;-3.600;;0.368;0.333;0.368;0.021;
1;207;10.000;3.000;-3.600;;0.413;0.377;0.413;0.021;
1;208;10.500;3.000;-3.600;;0.406;0.370;0.406;0.021;
1;209;11.000;3.000;-3.600;;0.339;0.306;0.339;0.019;
1;210;11.500;3.000;-3.600;;0.242;0.217;0.242;0.016;
1;211;12.000;3.000;-3.600;;0.230;0.217;0.230;0.013;
1;212;12.500;3.000;-3.600;;0.295;0.280;0.295;0.016;
1;213;13.000;3.000;-3.600;;0.295;0.278;0.295;0.016;
1;214;13.500;3.000;-3.600;;0.251;0.232;0.251;0.015;
1;215;14.000;3.000;-3.600;;0.206;0.188;0.206;0.014;
1;216;14.500;3.000;-3.600;;0.241;0.230;0.241;0.011;
1;217;15.000;3.000;-3.600;;0.333;0.333;0.332;0.003;
1;218;0.000;3.500;-3.600;;0.717;0.717;0.706;0.017;
1;219;0.500;3.500;-3.600;;0.302;0.302;0.294;0.021;
1;220;1.000;3.500;-3.600;;0.149;0.123;0.149;0.019;
1;221;1.500;3.500;-3.600;;0.240;0.215;0.240;0.015;
1;222;2.000;3.500;-3.600;;0.317;0.301;0.317;0.014;
1;223;2.500;3.500;-3.600;;0.353;0.339;0.353;0.018;
1;224;3.000;3.500;-3.600;;0.323;0.318;0.309;0.019;
1;225;3.500;3.500;-3.600;;0.135;0.108;0.135;0.024;
1;226;4.000;3.500;-3.600;;0.331;0.283;0.331;0.025;
1;227;4.500;3.500;-3.600;;0.433;0.390;0.433;0.022;
1;228;5.000;3.500;-3.600;;0.463;0.425;0.463;0.021;
1;229;5.500;3.500;-3.600;;0.417;0.382;0.417;0.021;
1;230;6.000;3.500;-3.600;;0.190;0.175;0.180;0.020;
1;231;6.500;3.500;-3.600;;0.282;0.237;0.282;0.024;
1;232;7.000;3.500;-3.600;;0.449;0.398;0.449;0.026;
1;233;7.500;3.500;-3.600;;0.502;0.452;0.502;0.026;
1;234;8.000;3.500;-3.600;;0.473;0.422;0.473;0.026;
1;235;8.500;3.500;-3.600;;0.341;0.295;0.341;0.024;
1;236;9.000;3.500;-3.600;;0.142;0.123;0.142;0.021;
1;237;9.500;3.500;-3.600;;0.382;0.345;0.382;0.021;
1;238;10.000;3.500;-3.600;;0.463;0.423;0.463;0.021;
1;239;10.500;3.500;-3.600;;0.457;0.413;0.457;0.023;
1;240;11.000;3.500;-3.600;;0.375;0.326;0.375;0.025;
1;241;11.500;3.500;-3.600;;0.179;0.138;0.179;0.023;
1;242;12.000;3.500;-3.600;;0.250;0.245;0.238;0.019;
1;243;12.500;3.500;-3.600;;0.341;0.328;0.341;0.018;
1;244;13.000;3.500;-3.600;;0.334;0.318;0.334;0.016;
1;245;13.500;3.500;-3.600;;0.278;0.249;0.278;0.017;
1;246;14.000;3.500;-3.600;;0.181;0.145;0.181;0.022;
1;247;14.500;3.500;-3.600;;0.252;0.252;0.249;0.023;
1;248;15.000;3.500;-3.600;;0.635;0.635;0.626;0.017;
1;249;0.000;4.000;-3.600;;1.544;1.544;1.383;0.082;
1;250;0.500;4.000;-3.600;;0.559;0.559;0.476;0.045;
1;251;1.000;4.000;-3.600;;0.132;0.119;0.132;0.022;
1;252;1.500;4.000;-3.600;;0.278;0.256;0.278;0.012;
1;253;2.000;4.000;-3.600;;0.381;0.374;0.381;0.003;
1;254;2.500;4.000;-3.600;;0.474;0.474;0.451;0.013;
1;255;3.000;4.000;-3.600;;0.734;0.734;0.625;0.057;
1;256;3.500;4.000;-3.600;;0.223;0.223;0.173;0.046;
1;257;4.000;4.000;-3.600;;0.386;0.333;0.386;0.028;
1;258;4.500;4.000;-3.600;;0.500;0.458;0.500;0.021;
1;259;5.000;4.000;-3.600;;0.536;0.503;0.536;0.017;
1;260;5.500;4.000;-3.600;;0.469;0.447;0.469;0.013;
1;261;6.000;4.000;-3.600;;0.362;0.362;0.313;0.028;
1;262;6.500;4.000;-3.600;;0.247;0.187;0.247;0.034;
1;263;7.000;4.000;-3.600;;0.518;0.465;0.518;0.027;
1;264;7.500;4.000;-3.600;;0.575;0.524;0.575;0.026;
1;265;8.000;4.000;-3.600;;0.543;0.490;0.543;0.027;
1;266;8.500;4.000;-3.600;;0.320;0.257;0.320;0.034;
1;267;9.000;4.000;-3.600;;0.281;0.281;0.228;0.028;
1;268;9.500;4.000;-3.600;;0.404;0.380;0.404;0.014;
1;269;10.000;4.000;-3.600;;0.535;0.500;0.535;0.017;
1;270;10.500;4.000;-3.600;;0.525;0.482;0.525;0.022;
1;271;11.000;4.000;-3.600;;0.432;0.378;0.432;0.028;
1;272;11.500;4.000;-3.600;;0.153;0.145;0.153;0.046;
1;273;12.000;4.000;-3.600;;0.574;0.574;0.467;0.059;
1;274;12.500;4.000;-3.600;;0.435;0.435;0.409;0.014;
1;275;13.000;4.000;-3.600;;0.401;0.394;0.401;0.004;
1;276;13.500;4.000;-3.600;;0.323;0.296;0.323;0.014;
1;277;14.000;4.000;-3.600;;0.179;0.148;0.179;0.026;
1;278;14.500;4.000;-3.600;;0.485;0.485;0.394;0.051;
1;279;15.000;4.000;-3.600;;1.409;1.409;1.230;0.091;
Extremes;1;0.000;0.000;-3.600;σ_eqv,Mises,Max;1.548;1.548;1.380;0.085;
1;3;1.000;0.000;-3.600;σ_eqv,Mises,Max;0.103;0.097;0.103;0.028;
1;1;0.000;0.000;-3.600;σ_eqv,Mises,+;1.548;1.548;1.380;0.085;
1;34;1.000;0.500;-3.600;σ_eqv,Mises,+;0.104;0.085;0.104;0.024;
1;249;0.000;4.000;-3.600;σ_eqv,Mises,-;1.544;1.544;1.383;0.082;
1;3;1.000;0.000;-3.600;σ_eqv,Mises,-;0.103;0.097;0.103;0.028;
1;279;15.000;4.000;-3.600;σ_eqv,Mises,m;1.409;1.409;1.230;0.091;
1;154;14.500;2.000;-3.600;σ_eqv,Mises,m;0.295;0.293;0.295;0.001;
Total;;;;;;1.548;1.548;1.383;0.091;
1;;;;;;0.103;0.085;0.103;0.001;
;;;;;;;;;;
;Total max/min values with corresponding values;;;;;;;;;
1;1;0.000;0.000;-3.600;σ_eqv,Mises,Max;1.548;1.548;1.380;0.085;
1;3;1.000;0.000;-3.600;σ_eqv,Mises,Max;0.103;0.097;0.103;0.028;
1;1;0.000;0.000;-3.600;σ_eqv,Mises,+;1.548;1.548;1.380;0.085;
1;34;1.000;0.500;-3.600;σ_eqv,Mises,+;0.104;0.085;0.104;0.024;
1;249;0.000;4.000;-3.600;σ_eqv,Mises,-;1.544;1.544;1.383;0.082;
1;3;1.000;0.000;-3.600;σ_eqv,Mises,-;0.103;0.097;0.103;0.028;
1;279;15.000;4.000;-3.600;σ_eqv,Mises,m;1.409;1.409;1.230;0.091;
1;154;14.500;2.000;-3.600;σ_eqv,Mises,m;0.295;0.293;0.295;0.001;
;;;;;;;;;;
Total;;;;;;1.548;1.548;1.383;0.091;
max/min;;;;;;0.103;0.085;0.103;0.001;
