Surface No.;Grid;Grid Point Coordinates [m];;;;Principal Stresses [N/mm^2 ];;;;;;;;;;
;Point No.;X;Y;Z;;σ_1,+;σ_2,+;α_+ [deg];σ_1,-;σ_2,-;α_- [deg];σ_1,m;σ_2,m;α_m [deg];τ_max;Surface Comment
1;1;0.000;0.000;-3.600;max;0.001;0.000;85.07;0.001;0.000;70.24;0.001;0.000;77.78;0.000;
1;1;0.000;0.000;-3.600;min;0.000;-0.001;-80.35;0.000;-0.001;-82.94;0.000;-0.001;-77.78;0.000;
1;2;0.500;0.000;-3.600;max;0.001;0.000;77.04;0.001;0.000;71.75;0.000;0.000;83.99;0.000;
1;2;0.500;0.000;-3.600;min;0.000;-0.001;-71.02;0.000;-0.001;-76.71;0.000;0.000;-83.99;0.000;
1;3;1.000;0.000;-3.600;max;0.001;0.000;73.37;0.001;0.000;72.80;0.000;0.000;89.04;0.000;
1;3;1.000;0.000;-3.600;min;0.000;-0.001;-70.32;0.000;-0.001;-72.87;0.000;0.000;-89.04;0.000;
1;4;1.500;0.000;-3.600;max;0.001;0.000;72.48;0.001;0.000;69.94;0.000;0.000;80.27;0.000;
1;4;1.500;0.000;-3.600;min;0.000;-0.001;-66.34;0.000;-0.001;-70.08;0.000;0.000;-80.27;0.000;
1;5;2.000;0.000;-3.600;max;0.001;0.000;76.22;0.001;0.000;75.78;0.000;0.000;84.96;0.000;
1;5;2.000;0.000;-3.600;min;0.000;-0.001;-75.27;0.000;-0.001;-75.88;0.000;0.000;-84.96;0.000;
1;6;2.500;0.000;-3.600;max;0.001;0.000;80.22;0.001;0.000;79.59;0.000;0.000;83.81;0.000;
1;6;2.500;0.000;-3.600;min;0.000;-0.001;-79.17;0.000;-0.001;-79.75;0.000;0.000;-83.81;0.000;
1;7;3.000;0.000;-3.600;max;0.001;0.000;82.62;0.001;0.000;80.40;0.000;0.000;76.66;0.000;
1;7;3.000;0.000;-3.600;min;0.000;-0.001;-80.62;0.000;-0.001;-81.29;0.000;0.000;-76.66;0.000;
1;8;3.500;0.000;-3.600;max;0.001;0.000;85.41;0.001;0.000;83.91;0.000;0.000;83.56;0.000;
1;8;3.500;0.000;-3.600;min;0.000;-0.001;-84.14;0.000;-0.001;-85.19;0.000;0.000;-83.56;0.000;
1;9;4.000;0.000;-3.600;max;0.001;0.000;84.71;0.001;0.000;84.58;0.000;0.000;89.25;0.000;
1;9;4.000;0.000;-3.600;min;0.000;-0.001;-84.49;0.000;-0.001;-84.62;0.000;0.000;-89.25;0.000;
1;10;4.500;0.000;-3.600;max;0.001;0.000;85.30;0.001;0.000;85.24;0.000;0.000;89.64;0.000;
1;10;4.500;0.000;-3.600;min;0.000;-0.001;-85.21;0.000;-0.001;-85.27;0.000;0.000;-89.64;0.000;
1;11;5.000;0.000;-3.600;max;0.001;0.000;86.76;0.001;0.000;86.69;0.000;0.000;89.61;0.000;
1;11;5.000;0.000;-3.600;min;0.000;-0.001;-86.60;0.000;-0.001;-86.70;0.000;0.000;-89.61;0.000;
1;12;5.500;0.000;-3.600;max;0.001;0.000;87.45;0.001;0.000;86.78;0.000;0.000;82.60;0.000;
1;12;5.500;0.000;-3.600;min;0.000;-0.001;-86.88;0.000;-0.001;-87.39;0.000;0.000;-82.60;0.000;
1;13;6.000;0.000;-3.600;max;0.002;0.000;74.98;0.002;0.000;72.11;0.000;0.000;76.60;0.000;
1;13;6.000;0.000;-3.600;min;0.000;-0.002;-71.89;0.000;-0.002;-73.36;0.000;0.000;-76.60;0.000;
1;14;6.500;0.000;-3.600;max;0.001;0.000;87.01;0.001;0.000;86.00;0.000;0.000;80.16;0.000;
1;14;6.500;0.000;-3.600;min;0.000;-0.001;-86.15;0.000;-0.001;-86.92;0.000;0.000;-80.16;0.000;
1;15;7.000;0.000;-3.600;max;0.001;0.000;83.50;0.001;0.000;83.41;0.000;0.000;89.54;0.000;
1;15;7.000;0.000;-3.600;min;0.000;-0.001;-83.16;0.000;-0.001;-83.44;0.000;0.000;-89.54;0.000;
1;16;7.500;0.000;-3.600;max;0.001;0.000;84.18;0.001;0.000;84.12;0.000;0.000;89.69;0.000;
1;16;7.500;0.000;-3.600;min;0.000;-0.001;-84.01;0.000;-0.001;-84.15;0.000;0.000;-89.69;0.000;
1;17;8.000;0.000;-3.600;max;0.001;0.000;85.95;0.001;0.000;85.91;0.000;0.000;89.74;0.000;
1;17;8.000;0.000;-3.600;min;0.000;-0.001;-85.79;0.000;-0.001;-85.92;0.000;0.000;-89.74;0.000;
1;18;8.500;0.000;-3.600;max;0.001;0.000;87.37;0.001;0.000;86.66;0.000;0.000;80.60;0.000;
1;18;8.500;0.000;-3.600;min;0.000;-0.001;-86.79;0.000;-0.001;-87.29;0.000;0.000;-80.60;0.000;
1;19;9.000;0.000;-3.600;max;0.002;0.000;74.76;0.002;0.000;71.75;0.000;0.000;76.43;0.000;
1;19;9.000;0.000;-3.600;min;0.000;-0.002;-71.43;0.000;-0.002;-72.92;0.000;0.000;-76.43;0.000;
1;20;9.500;0.000;-3.600;max;0.001;0.000;87.37;0.001;0.000;86.36;0.000;0.000;82.23;0.000;
1;20;9.500;0.000;-3.600;min;0.000;-0.001;-86.54;0.000;-0.001;-87.27;0.000;0.000;-82.23;0.000;
1;21;10.000;0.000;-3.600;max;0.001;0.000;86.49;0.001;0.000;86.48;0.000;0.000;89.93;0.000;
1;21;10.000;0.000;-3.600;min;0.000;-0.001;-86.39;0.000;-0.001;-86.49;0.000;0.000;-89.93;0.000;
1;22;10.500;0.000;-3.600;max;0.001;0.000;85.30;0.001;0.000;85.24;0.000;0.000;89.74;0.000;
1;22;10.500;0.000;-3.600;min;0.000;-0.001;-85.18;0.000;-0.001;-85.27;0.000;0.000;-89.74;0.000;
1;23;11.000;0.000;-3.600;max;0.001;0.000;84.40;0.001;0.000;84.27;0.000;0.000;89.40;0.000;
1;23;11.000;0.000;-3.600;min;0.000;-0.001;-84.21;0.000;-0.001;-84.34;0.000;0.000;-89.40;0.000;
1;24;11.500;0.000;-3.600;max;0.001;0.000;88.20;0.001;0.000;87.67;0.000;0.000;78.02;0.000;
1;24;11.500;0.000;-3.600;min;0.000;-0.001;-87.78;0.000;-0.001;-88.13;0.000;0.000;-78.02;0.000;
1;25;12.000;0.000;-3.600;max;0.002;0.000;74.19;0.002;0.000;70.98;0.000;0.000;76.32;0.000;
1;25;12.000;0.000;-3.600;min;0.000;-0.002;-70.44;0.000;-0.002;-72.58;0.000;0.000;-76.32;0.000;
1;26;12.500;0.000;-3.600;max;0.001;0.000;85.89;0.001;0.000;84.13;0.000;0.000;83.58;0.000;
1;26;12.500;0.000;-3.600;min;0.000;-0.001;-84.31;0.000;-0.001;-85.80;0.000;0.000;-83.58;0.000;
1;27;13.000;0.000;-3.600;max;0.001;0.000;87.93;0.001;0.000;87.86;0.000;0.000;89.79;0.000;
1;27;13.000;0.000;-3.600;min;0.000;-0.001;-87.81;0.000;-0.001;-87.89;0.000;0.000;-89.79;0.000;
1;28;13.500;0.000;-3.600;max;0.001;0.000;86.87;0.001;0.000;86.77;0.000;0.000;89.72;0.000;
1;28;13.500;0.000;-3.600;min;0.000;-0.001;-86.73;0.000;-0.001;-86.83;0.000;0.000;-89.72;0.000;
1;29;14.000;0.000;-3.600;max;0.001;0.000;86.02;0.001;0.000;85.69;0.000;0.000;89.23;0.000;
1;29;14.000;0.000;-3.600;min;0.000;-0.001;-85.60;0.000;-0.001;-85.94;0.000;0.000;-89.23;0.000;
1;30;14.500;0.000;-3.600;max;0.001;0.000;86.83;0.001;0.000;83.95;0.000;0.000;82.29;0.000;
1;30;14.500;0.000;-3.600;min;0.000;-0.001;-84.29;0.000;-0.001;-86.74;0.000;0.000;-82.29;0.000;
1;31;15.000;0.000;-3.600;max;0.002;0.000;78.22;0.002;0.000;73.08;0.001;0.000;78.38;0.000;
1;31;15.000;0.000;-3.600;min;0.000;-0.002;-71.10;0.000;-0.002;-77.60;0.000;-0.001;-78.38;0.000;
1;32;0.000;0.500;-3.600;max;0.001;0.000;60.79;0.001;0.000;57.49;0.000;0.000;56.47;0.000;
1;32;0.000;0.500;-3.600;min;0.000;-0.001;-58.96;0.000;-0.001;-58.38;0.000;0.000;-56.47;0.000;
1;33;0.500;0.500;-3.600;max;0.001;0.000;56.71;0.001;0.000;53.47;0.000;0.000;65.06;0.000;
1;33;0.500;0.500;-3.600;min;0.000;-0.001;-51.27;0.000;-0.001;-55.56;0.000;0.000;-65.06;0.000;
1;34;1.000;0.500;-3.600;max;0.001;0.000;65.24;0.001;0.000;59.52;0.000;0.000;67.03;0.000;
1;34;1.000;0.500;-3.600;min;0.000;-0.001;-57.08;0.000;-0.001;-62.28;0.000;0.000;-67.03;0.000;
1;35;1.500;0.500;-3.600;max;0.001;0.000;71.77;0.001;0.000;66.56;0.000;0.000;60.06;0.000;
1;35;1.500;0.500;-3.600;min;0.000;-0.001;-67.12;0.000;-0.001;-71.38;0.000;0.000;-60.06;0.000;
1;36;2.000;0.500;-3.600;max;0.001;0.000;71.22;0.001;0.000;67.23;0.000;0.000;68.16;0.000;
1;36;2.000;0.500;-3.600;min;0.000;-0.001;-68.72;0.000;-0.001;-69.54;0.000;0.000;-68.16;0.000;
1;37;2.500;0.500;-3.600;max;0.001;0.000;76.68;0.001;0.000;74.24;0.000;0.000;71.17;0.000;
1;37;2.500;0.500;-3.600;min;0.000;-0.001;-75.10;0.000;-0.001;-75.53;0.000;0.000;-71.17;0.000;
1;38;3.000;0.500;-3.600;max;0.001;0.000;84.34;0.001;0.000;82.28;0.000;0.000;75.02;0.000;
1;38;3.000;0.500;-3.600;min;0.000;-0.001;-83.74;0.000;-0.001;-82.79;0.000;0.000;-75.02;0.000;
1;39;3.500;0.500;-3.600;max;0.001;0.000;85.17;0.001;0.000;83.78;0.000;0.000;71.60;0.000;
1;39;3.500;0.500;-3.600;min;0.000;-0.001;-84.48;0.000;-0.001;-84.64;0.000;0.000;-71.60;0.000;
1;40;4.000;0.500;-3.600;max;0.001;0.000;84.09;0.001;0.000;82.83;0.000;0.000;74.22;0.000;
1;40;4.000;0.500;-3.600;min;0.000;-0.001;-83.16;0.000;-0.001;-83.84;0.000;0.000;-74.22;0.000;
1;41;4.500;0.500;-3.600;max;0.001;0.000;84.31;0.001;0.000;82.96;0.000;0.000;76.47;0.000;
1;41;4.500;0.500;-3.600;min;0.000;-0.001;-83.43;0.000;-0.001;-83.96;0.000;0.000;-76.47;0.000;
1;42;5.000;0.500;-3.600;max;0.001;0.000;85.77;0.001;0.000;84.66;0.000;0.000;73.74;0.000;
1;42;5.000;0.500;-3.600;min;0.000;-0.001;-85.13;0.000;-0.001;-85.42;0.000;0.000;-73.74;0.000;
1;43;5.500;0.500;-3.600;max;0.001;0.000;85.04;0.001;0.000;83.27;0.000;0.000;69.47;0.000;
1;43;5.500;0.500;-3.600;min;0.000;-0.001;-84.51;0.000;-0.001;-84.04;0.000;0.000;-69.47;0.000;
1;44;6.000;0.500;-3.600;max;0.001;0.000;75.00;0.001;0.000;72.81;0.000;0.000;66.65;0.000;
1;44;6.000;0.500;-3.600;min;0.000;-0.001;-73.84;0.000;-0.001;-73.06;0.000;0.000;-66.65;0.000;
1;45;6.500;0.500;-3.600;max;0.001;0.000;83.20;0.001;0.000;80.43;0.000;0.000;64.42;0.000;
1;45;6.500;0.500;-3.600;min;0.000;-0.001;-82.27;0.000;-0.001;-81.81;0.000;0.000;-64.42;0.000;
1;46;7.000;0.500;-3.600;max;0.001;0.000;82.41;0.001;0.000;80.88;0.000;0.000;65.76;0.000;
1;46;7.000;0.500;-3.600;min;0.000;-0.001;-81.27;0.000;-0.001;-82.12;0.000;0.000;-65.76;0.000;
1;47;7.500;0.500;-3.600;max;0.001;0.000;83.07;0.001;0.000;81.88;0.000;0.000;68.95;0.000;
1;47;7.500;0.500;-3.600;min;0.000;-0.001;-82.10;0.000;-0.001;-82.90;0.000;0.000;-68.95;0.000;
1;48;8.000;0.500;-3.600;max;0.001;0.000;86.85;0.001;0.000;86.24;0.000;0.000;67.99;0.000;
1;48;8.000;0.500;-3.600;min;0.000;-0.001;-86.42;0.000;-0.001;-86.71;0.000;0.000;-67.99;0.000;
1;49;8.500;0.500;-3.600;max;0.001;0.000;85.89;0.001;0.000;84.65;0.000;0.000;66.08;0.000;
1;49;8.500;0.500;-3.600;min;0.000;-0.001;-85.51;0.000;-0.001;-85.17;0.000;0.000;-66.08;0.000;
1;50;9.000;0.500;-3.600;max;0.001;0.000;74.66;0.001;0.000;72.91;0.000;0.000;68.58;0.000;
1;50;9.000;0.500;-3.600;min;0.000;-0.001;-73.71;0.000;-0.001;-73.18;0.000;0.000;-68.58;0.000;
1;51;9.500;0.500;-3.600;max;0.001;0.000;85.19;0.001;0.000;83.51;0.000;0.000;68.23;0.000;
1;51;9.500;0.500;-3.600;min;0.000;-0.001;-84.59;0.000;-0.001;-84.36;0.000;0.000;-68.23;0.000;
1;52;10.000;0.500;-3.600;max;0.001;0.000;87.67;0.001;0.000;87.08;0.000;0.000;70.91;0.000;
1;52;10.000;0.500;-3.600;min;0.000;-0.001;-87.20;0.000;-0.001;-87.59;0.000;0.000;-70.91;0.000;
1;53;10.500;0.500;-3.600;max;0.001;0.000;84.68;0.001;0.000;83.37;0.000;0.000;71.74;0.000;
1;53;10.500;0.500;-3.600;min;0.000;-0.001;-83.55;0.000;-0.001;-84.57;0.000;0.000;-71.74;0.000;
1;54;11.000;0.500;-3.600;max;0.001;0.000;84.65;0.001;0.000;83.12;0.000;0.000;68.27;0.000;
1;54;11.000;0.500;-3.600;min;0.000;-0.001;-83.45;0.000;-0.001;-84.43;0.000;0.000;-68.27;0.000;
1;55;11.500;0.500;-3.600;max;0.001;0.000;82.93;0.001;0.000;80.29;0.000;0.000;67.72;0.000;
1;55;11.500;0.500;-3.600;min;0.000;-0.001;-81.52;0.000;-0.001;-82.09;0.000;0.000;-67.72;0.000;
1;56;12.000;0.500;-3.600;max;0.001;0.000;72.46;0.001;0.000;70.40;0.000;0.000;72.21;0.000;
1;56;12.000;0.500;-3.600;min;0.000;-0.001;-70.51;0.000;-0.001;-70.80;0.000;0.000;-72.21;0.000;
1;57;12.500;0.500;-3.600;max;0.001;0.000;82.31;0.001;0.000;79.14;0.000;0.000;74.89;0.000;
1;57;12.500;0.500;-3.600;min;0.000;-0.001;-80.75;0.000;-0.001;-80.63;0.000;0.000;-74.89;0.000;
1;58;13.000;0.500;-3.600;max;0.001;0.000;85.83;0.001;0.000;83.49;0.000;0.000;79.39;0.000;
1;58;13.000;0.500;-3.600;min;0.000;-0.001;-84.40;0.000;-0.001;-85.33;0.000;0.000;-79.39;0.000;
1;59;13.500;0.500;-3.600;max;0.001;0.000;86.47;0.001;0.000;84.39;0.000;0.000;79.81;0.000;
1;59;13.500;0.500;-3.600;min;0.000;-0.001;-85.11;0.000;-0.001;-86.10;0.000;0.000;-79.81;0.000;
1;60;14.000;0.500;-3.600;max;0.001;0.000;85.82;0.001;0.000;83.61;0.000;0.000;73.51;0.000;
1;60;14.000;0.500;-3.600;min;0.000;-0.001;-84.28;0.000;-0.001;-85.47;0.000;0.000;-73.51;0.000;
1;61;14.500;0.500;-3.600;max;0.001;0.000;82.34;0.001;0.000;79.61;0.000;0.000;66.04;0.000;
1;61;14.500;0.500;-3.600;min;0.000;-0.001;-80.91;0.000;-0.001;-81.42;0.000;0.000;-66.04;0.000;
1;62;15.000;0.500;-3.600;max;0.001;0.000;73.12;0.001;0.000;70.15;0.000;0.000;51.84;0.000;
1;62;15.000;0.500;-3.600;min;0.000;-0.001;-72.73;0.000;-0.001;-70.29;0.000;0.000;-51.84;0.000;
1;63;0.000;1.000;-3.600;max;0.000;0.000;54.21;0.000;0.000;53.32;0.000;0.000;74.49;0.000;
1;63;0.000;1.000;-3.600;min;0.000;0.000;-50.93;0.000;0.000;-54.87;0.000;0.000;-74.49;0.000;
1;64;0.500;1.000;-3.600;max;0.001;0.000;53.92;0.001;0.000;51.74;0.000;0.000;66.80;0.000;
1;64;0.500;1.000;-3.600;min;0.000;-0.001;-48.94;0.000;-0.001;-54.55;0.000;0.000;-66.80;0.000;
1;65;1.000;1.000;-3.600;max;0.000;0.000;62.11;0.000;0.000;56.75;0.000;0.000;64.36;0.000;
1;65;1.000;1.000;-3.600;min;0.000;0.000;-55.71;0.000;0.000;-59.19;0.000;0.000;-64.36;0.000;
1;66;1.500;1.000;-3.600;max;0.001;0.000;75.06;0.001;0.000;71.54;0.000;0.000;61.43;0.000;
1;66;1.500;1.000;-3.600;min;0.000;-0.001;-72.18;0.000;-0.001;-74.59;0.000;0.000;-61.43;0.000;
1;67;2.000;1.000;-3.600;max;0.001;0.000;71.34;0.001;0.000;65.75;0.000;0.000;74.07;0.000;
1;67;2.000;1.000;-3.600;min;0.000;-0.001;-64.69;0.000;-0.001;-68.57;0.000;0.000;-74.07;0.000;
1;68;2.500;1.000;-3.600;max;0.001;0.000;78.01;0.001;0.000;71.68;0.000;0.000;65.92;0.000;
1;68;2.500;1.000;-3.600;min;0.000;-0.001;-74.86;0.000;-0.001;-75.92;0.000;0.000;-65.92;0.000;
1;69;3.000;1.000;-3.600;max;0.001;0.000;84.81;0.001;0.000;82.76;0.000;0.000;66.75;0.000;
1;69;3.000;1.000;-3.600;min;0.000;-0.001;-83.96;0.000;-0.001;-83.95;0.000;0.000;-66.75;0.000;
1;70;3.500;1.000;-3.600;max;0.001;0.000;85.30;0.001;0.000;84.12;0.000;0.000;68.78;0.000;
1;70;3.500;1.000;-3.600;min;0.000;-0.001;-84.65;0.000;-0.001;-84.89;0.000;0.000;-68.78;0.000;
1;71;4.000;1.000;-3.600;max;0.001;0.000;84.12;0.001;0.000;82.80;0.000;0.000;70.12;0.000;
1;71;4.000;1.000;-3.600;min;0.000;-0.001;-83.36;0.000;-0.001;-83.68;0.000;0.000;-70.12;0.000;
1;72;4.500;1.000;-3.600;max;0.001;0.000;83.93;0.001;0.000;82.40;0.000;0.000;72.21;0.000;
1;72;4.500;1.000;-3.600;min;0.000;-0.001;-83.17;0.000;-0.001;-83.32;0.000;0.000;-72.21;0.000;
1;73;5.000;1.000;-3.600;max;0.001;0.000;83.75;0.001;0.000;82.02;0.000;0.000;72.48;0.000;
1;73;5.000;1.000;-3.600;min;0.000;-0.001;-83.03;0.000;-0.001;-82.95;0.000;0.000;-72.48;0.000;
1;74;5.500;1.000;-3.600;max;0.001;0.000;81.08;0.001;0.000;78.75;0.000;0.000;73.27;0.000;
1;74;5.500;1.000;-3.600;min;0.000;-0.001;-80.17;0.000;-0.001;-79.43;0.000;0.000;-73.27;0.000;
1;75;6.000;1.000;-3.600;max;0.001;0.000;73.92;0.001;0.000;72.12;0.000;0.000;72.07;0.000;
1;75;6.000;1.000;-3.600;min;0.000;-0.001;-72.25;0.000;-0.001;-72.25;0.000;0.000;-72.07;0.000;
1;76;6.500;1.000;-3.600;max;0.001;0.000;77.60;0.001;0.000;74.29;0.000;0.000;68.98;0.000;
1;76;6.500;1.000;-3.600;min;0.000;-0.001;-75.98;0.000;-0.001;-76.26;0.000;0.000;-68.98;0.000;
1;77;7.000;1.000;-3.600;max;0.001;0.000;80.88;0.001;0.000;78.74;0.000;0.000;66.33;0.000;
1;77;7.000;1.000;-3.600;min;0.000;-0.001;-79.78;0.000;-0.001;-80.05;0.000;0.000;-66.33;0.000;
1;78;7.500;1.000;-3.600;max;0.001;0.000;82.96;0.001;0.000;81.65;0.000;0.000;66.30;0.000;
1;78;7.500;1.000;-3.600;min;0.000;-0.001;-82.20;0.000;-0.001;-82.52;0.000;0.000;-66.30;0.000;
1;79;8.000;1.000;-3.600;max;0.001;0.000;86.02;0.001;0.000;85.27;0.000;0.000;68.05;0.000;
1;79;8.000;1.000;-3.600;min;0.000;-0.001;-85.64;0.000;-0.001;-85.71;0.000;0.000;-68.05;0.000;
1;80;8.500;1.000;-3.600;max;0.001;0.000;83.22;0.001;0.000;81.50;0.000;0.000;73.81;0.000;
1;80;8.500;1.000;-3.600;min;0.000;-0.001;-82.65;0.000;-0.001;-82.25;0.000;0.000;-73.81;0.000;
1;81;9.000;1.000;-3.600;max;0.001;0.000;77.06;0.001;0.000;76.41;0.000;0.000;81.89;0.000;
1;81;9.000;1.000;-3.600;min;0.000;-0.001;-76.08;0.000;-0.001;-76.59;0.000;0.000;-81.89;0.000;
1;82;9.500;1.000;-3.600;max;0.001;0.000;82.62;0.001;0.000;80.59;0.000;0.000;73.92;0.000;
1;82;9.500;1.000;-3.600;min;0.000;-0.001;-81.91;0.000;-0.001;-81.54;0.000;0.000;-73.92;0.000;
1;83;10.000;1.000;-3.600;max;0.001;0.000;86.78;0.001;0.000;86.11;0.000;0.000;68.91;0.000;
1;83;10.000;1.000;-3.600;min;0.000;-0.001;-86.39;0.000;-0.001;-86.56;0.000;0.000;-68.91;0.000;
1;84;10.500;1.000;-3.600;max;0.001;0.000;84.49;0.001;0.000;83.33;0.000;0.000;68.22;0.000;
1;84;10.500;1.000;-3.600;min;0.000;-0.001;-83.65;0.000;-0.001;-84.25;0.000;0.000;-68.22;0.000;
1;85;11.000;1.000;-3.600;max;0.001;0.000;82.18;0.001;0.000;80.05;0.000;0.000;69.33;0.000;
1;85;11.000;1.000;-3.600;min;0.000;-0.001;-80.77;0.000;-0.001;-81.66;0.000;0.000;-69.33;0.000;
1;86;11.500;1.000;-3.600;max;0.001;0.000;75.64;0.001;0.000;72.01;0.000;0.000;72.75;0.000;
1;86;11.500;1.000;-3.600;min;0.000;-0.001;-72.96;0.000;-0.001;-74.31;0.000;0.000;-72.75;0.000;
1;87;12.000;1.000;-3.600;max;0.001;0.000;70.04;0.001;0.000;68.51;0.000;0.000;78.00;0.000;
1;87;12.000;1.000;-3.600;min;0.000;-0.001;-67.15;0.000;-0.001;-68.97;0.000;0.000;-78.00;0.000;
1;88;12.500;1.000;-3.600;max;0.001;0.000;77.36;0.001;0.000;74.98;0.000;0.000;77.31;0.000;
1;88;12.500;1.000;-3.600;min;0.000;-0.001;-75.39;0.000;-0.001;-75.78;0.000;0.000;-77.31;0.000;
1;89;13.000;1.000;-3.600;max;0.001;0.000;83.32;0.001;0.000;80.31;0.000;0.000;76.26;0.000;
1;89;13.000;1.000;-3.600;min;0.000;-0.001;-82.09;0.000;-0.001;-82.09;0.000;0.000;-76.26;0.000;
1;90;13.500;1.000;-3.600;max;0.001;0.000;85.24;0.001;0.000;83.25;0.000;0.000;75.01;0.000;
1;90;13.500;1.000;-3.600;min;0.000;-0.001;-84.37;0.000;-0.001;-84.46;0.000;0.000;-75.01;0.000;
1;91;14.000;1.000;-3.600;max;0.001;0.000;83.40;0.001;0.000;81.34;0.000;0.000;70.88;0.000;
1;91;14.000;1.000;-3.600;min;0.000;-0.001;-82.64;0.000;-0.001;-82.37;0.000;0.000;-70.88;0.000;
1;92;14.500;1.000;-3.600;max;0.001;0.000;77.29;0.001;0.000;74.76;0.000;0.000;69.61;0.000;
1;92;14.500;1.000;-3.600;min;0.000;-0.001;-76.22;0.000;-0.001;-75.27;0.000;0.000;-69.61;0.000;
1;93;15.000;1.000;-3.600;max;0.001;0.000;70.84;0.001;0.000;68.79;0.000;0.000;74.06;0.000;
1;93;15.000;1.000;-3.600;min;0.000;-0.001;-68.84;0.000;-0.001;-69.70;0.000;0.000;-74.06;0.000;
1;94;0.000;1.500;-3.600;max;0.000;0.000;52.98;0.000;0.000;51.13;0.000;0.000;58.43;0.000;
1;94;0.000;1.500;-3.600;min;0.000;0.000;-50.00;0.000;0.000;-52.17;0.000;0.000;-58.43;0.000;
1;95;0.500;1.500;-3.600;max;0.000;0.000;54.75;0.000;0.000;52.22;0.000;0.000;54.39;0.000;
1;95;0.500;1.500;-3.600;min;0.000;0.000;-52.07;0.000;0.000;-52.71;0.000;0.000;-54.39;0.000;
1;96;1.000;1.500;-3.600;max;0.000;0.000;59.78;0.000;0.000;55.77;0.000;0.000;64.06;0.000;
1;96;1.000;1.500;-3.600;min;0.000;0.000;-54.87;0.000;0.000;-56.25;0.000;0.000;-64.06;0.000;
1;98;2.000;1.500;-3.600;max;0.000;0.000;62.09;0.000;0.000;58.05;0.000;0.000;54.86;0.000;
1;98;2.000;1.500;-3.600;min;0.000;0.000;-60.58;0.000;0.000;-59.10;0.000;0.000;-54.86;0.000;
1;99;2.500;1.500;-3.600;max;0.001;0.000;78.13;0.001;0.000;72.92;0.000;0.000;50.43;0.000;
1;99;2.500;1.500;-3.600;min;0.000;-0.001;-77.29;0.000;-0.001;-74.33;0.000;0.000;-50.43;0.000;
1;100;3.000;1.500;-3.600;max;0.001;0.000;85.89;0.001;0.000;84.69;0.000;0.000;58.17;0.000;
1;100;3.000;1.500;-3.600;min;0.000;-0.001;-85.24;0.000;-0.001;-85.49;0.000;0.000;-58.17;0.000;
1;101;3.500;1.500;-3.600;max;0.001;0.000;85.83;0.001;0.000;84.93;0.000;0.000;66.04;0.000;
1;101;3.500;1.500;-3.600;min;0.000;-0.001;-85.28;0.000;-0.001;-85.56;0.000;0.000;-66.04;0.000;
1;102;4.000;1.500;-3.600;max;0.001;0.000;84.99;0.001;0.000;83.81;0.000;0.000;70.68;0.000;
1;102;4.000;1.500;-3.600;min;0.000;-0.001;-84.33;0.000;-0.001;-84.58;0.000;0.000;-70.68;0.000;
1;103;4.500;1.500;-3.600;max;0.001;0.000;84.27;0.001;0.000;82.69;0.000;0.000;74.16;0.000;
1;103;4.500;1.500;-3.600;min;0.000;-0.001;-83.52;0.000;-0.001;-83.63;0.000;0.000;-74.16;0.000;
1;104;5.000;1.500;-3.600;max;0.001;0.000;82.18;0.001;0.000;79.89;0.000;0.000;76.14;0.000;
1;104;5.000;1.500;-3.600;min;0.000;-0.001;-81.14;0.000;-0.001;-81.21;0.000;0.000;-76.14;0.000;
1;105;5.500;1.500;-3.600;max;0.001;0.000;77.87;0.001;0.000;75.82;0.000;0.000;76.31;0.000;
1;105;5.500;1.500;-3.600;min;0.000;-0.001;-76.28;0.000;-0.001;-76.35;0.000;0.000;-76.31;0.000;
1;106;6.000;1.500;-3.600;max;0.001;0.000;72.87;0.001;0.000;70.86;0.000;0.000;73.60;0.000;
1;106;6.000;1.500;-3.600;min;0.000;-0.001;-70.61;0.000;-0.001;-71.06;0.000;0.000;-73.60;0.000;
1;107;6.500;1.500;-3.600;max;0.001;0.000;75.56;0.001;0.000;72.81;0.000;0.000;73.05;0.000;
1;107;6.500;1.500;-3.600;min;0.000;-0.001;-73.43;0.000;-0.001;-73.51;0.000;0.000;-73.05;0.000;
1;108;7.000;1.500;-3.600;max;0.001;0.000;80.43;0.001;0.000;77.45;0.000;0.000;73.18;0.000;
1;108;7.000;1.500;-3.600;min;0.000;-0.001;-79.06;0.000;-0.001;-79.18;0.000;0.000;-73.18;0.000;
1;109;7.500;1.500;-3.600;max;0.001;0.000;83.83;0.001;0.000;82.29;0.000;0.000;73.60;0.000;
1;109;7.500;1.500;-3.600;min;0.000;-0.001;-83.00;0.000;-0.001;-83.28;0.000;0.000;-73.60;0.000;
1;110;8.000;1.500;-3.600;max;0.001;0.000;86.15;0.001;0.000;85.23;0.000;0.000;75.68;0.000;
1;110;8.000;1.500;-3.600;min;0.000;-0.001;-85.66;0.000;-0.001;-85.83;0.000;0.000;-75.68;0.000;
1;111;8.500;1.500;-3.600;max;0.001;0.000;83.41;0.001;0.000;82.00;0.000;0.000;79.98;0.000;
1;111;8.500;1.500;-3.600;min;0.000;-0.001;-82.62;0.000;-0.001;-82.61;0.000;0.000;-79.98;0.000;
1;112;9.000;1.500;-3.600;max;0.001;0.000;79.81;0.001;0.000;78.88;0.000;0.000;81.94;0.000;
1;112;9.000;1.500;-3.600;min;0.000;-0.001;-78.65;0.000;-0.001;-79.06;0.000;0.000;-81.94;0.000;
1;113;9.500;1.500;-3.600;max;0.001;0.000;83.07;0.001;0.000;81.59;0.000;0.000;79.56;0.000;
1;113;9.500;1.500;-3.600;min;0.000;-0.001;-82.23;0.000;-0.001;-82.23;0.000;0.000;-79.56;0.000;
1;114;10.000;1.500;-3.600;max;0.001;0.000;86.51;0.001;0.000;85.72;0.000;0.000;75.01;0.000;
1;114;10.000;1.500;-3.600;min;0.000;-0.001;-86.07;0.000;-0.001;-86.24;0.000;0.000;-75.01;0.000;
1;115;10.500;1.500;-3.600;max;0.001;0.000;84.71;0.001;0.000;83.58;0.000;0.000;73.03;0.000;
1;115;10.500;1.500;-3.600;min;0.000;-0.001;-84.01;0.000;-0.001;-84.38;0.000;0.000;-73.03;0.000;
1;116;11.000;1.500;-3.600;max;0.001;0.000;80.38;0.001;0.000;77.92;0.000;0.000;72.99;0.000;
1;116;11.000;1.500;-3.600;min;0.000;-0.001;-79.05;0.000;-0.001;-79.50;0.000;0.000;-72.99;0.000;
1;117;11.500;1.500;-3.600;max;0.001;0.000;73.43;0.001;0.000;70.93;0.000;0.000;73.31;0.000;
1;117;11.500;1.500;-3.600;min;0.000;-0.001;-71.22;0.000;-0.001;-71.61;0.000;0.000;-73.31;0.000;
1;118;12.000;1.500;-3.600;max;0.001;0.000;68.73;0.001;0.000;67.03;0.000;0.000;74.35;0.000;
1;118;12.000;1.500;-3.600;min;0.000;-0.001;-66.25;0.000;-0.001;-67.46;0.000;0.000;-74.35;0.000;
1;119;12.500;1.500;-3.600;max;0.001;0.000;73.90;0.001;0.000;71.94;0.000;0.000;76.84;0.000;
1;119;12.500;1.500;-3.600;min;0.000;-0.001;-72.03;0.000;-0.001;-72.86;0.000;0.000;-76.84;0.000;
1;120;13.000;1.500;-3.600;max;0.001;0.000;80.35;0.001;0.000;78.00;0.000;0.000;76.95;0.000;
1;120;13.000;1.500;-3.600;min;0.000;-0.001;-79.29;0.000;-0.001;-78.86;0.000;0.000;-76.95;0.000;
1;121;13.500;1.500;-3.600;max;0.001;0.000;84.27;0.001;0.000;82.46;0.000;0.000;75.41;0.000;
1;121;13.500;1.500;-3.600;min;0.000;-0.001;-83.72;0.000;-0.001;-83.24;0.000;0.000;-75.41;0.000;
1;122;14.000;1.500;-3.600;max;0.001;0.000;83.44;0.001;0.000;81.56;0.000;0.000;71.70;0.000;
1;122;14.000;1.500;-3.600;min;0.000;-0.001;-82.80;0.000;-0.001;-82.43;0.000;0.000;-71.70;0.000;
1;123;14.500;1.500;-3.600;max;0.000;0.000;78.69;0.000;0.000;76.04;0.000;0.000;57.98;0.000;
1;123;14.500;1.500;-3.600;min;0.000;0.000;-78.13;0.000;0.000;-76.80;0.000;0.000;-57.98;0.000;
1;124;15.000;1.500;-3.600;max;0.000;0.000;73.04;0.000;0.000;69.39;0.000;0.000;70.11;0.000;
1;124;15.000;1.500;-3.600;min;0.000;0.000;-70.27;0.000;0.000;-70.23;0.000;0.000;-70.11;0.000;
1;125;0.000;2.000;-3.600;max;0.000;0.000;52.85;0.000;0.000;51.66;0.000;0.000;64.92;0.000;
1;125;0.000;2.000;-3.600;min;0.000;0.000;-49.06;0.000;0.000;-52.06;0.000;0.000;-64.92;0.000;
1;126;0.500;2.000;-3.600;max;0.000;0.000;56.87;0.000;0.000;54.95;0.000;0.000;63.63;0.000;
1;126;0.500;2.000;-3.600;min;0.000;0.000;-53.76;0.000;0.000;-55.77;0.000;0.000;-63.63;0.000;
1;127;1.000;2.000;-3.600;max;0.001;0.000;65.75;0.001;0.000;61.43;0.000;0.000;76.81;0.000;
1;127;1.000;2.000;-3.600;min;0.000;-0.001;-57.26;0.000;-0.001;-65.64;0.000;0.000;-76.81;0.000;
1;128;1.500;2.000;-3.600;max;0.001;0.000;72.30;0.001;0.000;69.42;0.000;0.000;61.98;0.000;
1;128;1.500;2.000;-3.600;min;0.000;-0.001;-70.27;0.000;-0.001;-71.59;0.000;0.000;-61.98;0.000;
1;129;2.000;2.000;-3.600;max;0.000;0.000;77.16;0.000;0.000;70.99;0.000;0.000;76.36;0.000;
1;129;2.000;2.000;-3.600;min;0.000;0.000;-71.64;0.000;0.000;-73.76;0.000;0.000;-76.36;0.000;
1;130;2.500;2.000;-3.600;max;0.000;0.000;76.95;0.000;0.000;73.51;0.000;0.000;53.66;0.000;
1;130;2.500;2.000;-3.600;min;0.000;0.000;-76.11;0.000;0.000;-74.65;0.000;0.000;-53.66;0.000;
1;131;3.000;2.000;-3.600;max;0.001;0.000;84.66;0.001;0.000;83.23;0.000;0.000;58.52;0.000;
1;131;3.000;2.000;-3.600;min;0.000;-0.001;-84.11;0.000;-0.001;-83.95;0.000;0.000;-58.52;0.000;
1;132;3.500;2.000;-3.600;max;0.001;0.000;85.79;0.001;0.000;84.61;0.000;0.000;69.52;0.000;
1;132;3.500;2.000;-3.600;min;0.000;-0.001;-85.20;0.000;-0.001;-85.35;0.000;0.000;-69.52;0.000;
1;133;4.000;2.000;-3.600;max;0.001;0.000;85.57;0.001;0.000;84.37;0.000;0.000;74.32;0.000;
1;133;4.000;2.000;-3.600;min;0.000;-0.001;-84.89;0.000;-0.001;-85.19;0.000;0.000;-74.32;0.000;
1;134;4.500;2.000;-3.600;max;0.001;0.000;84.92;0.001;0.000;83.38;0.000;0.000;77.72;0.000;
1;134;4.500;2.000;-3.600;min;0.000;-0.001;-84.09;0.000;-0.001;-84.40;0.000;0.000;-77.72;0.000;
1;135;5.000;2.000;-3.600;max;0.001;0.000;81.29;0.001;0.000;79.37;0.000;0.000;80.38;0.000;
1;135;5.000;2.000;-3.600;min;0.000;-0.001;-79.83;0.000;-0.001;-80.25;0.000;0.000;-80.38;0.000;
1;136;5.500;2.000;-3.600;max;0.001;0.000;75.09;0.001;0.000;73.51;0.000;0.000;80.55;0.000;
1;136;5.500;2.000;-3.600;min;0.000;-0.001;-72.65;0.000;-0.001;-74.13;0.000;0.000;-80.55;0.000;
1;137;6.000;2.000;-3.600;max;0.001;0.000;69.97;0.001;0.000;68.27;0.000;0.000;77.31;0.000;
1;137;6.000;2.000;-3.600;min;0.000;-0.001;-66.73;0.000;-0.001;-68.57;0.000;0.000;-77.31;0.000;
1;138;6.500;2.000;-3.600;max;0.001;0.000;73.83;0.001;0.000;71.76;0.000;0.000;78.21;0.000;
1;138;6.500;2.000;-3.600;min;0.000;-0.001;-70.90;0.000;-0.001;-72.40;0.000;0.000;-78.21;0.000;
1;139;7.000;2.000;-3.600;max;0.001;0.000;80.55;0.001;0.000;78.26;0.000;0.000;79.17;0.000;
1;139;7.000;2.000;-3.600;min;0.000;-0.001;-78.71;0.000;-0.001;-79.25;0.000;0.000;-79.17;0.000;
1;140;7.500;2.000;-3.600;max;0.001;0.000;85.32;0.001;0.000;83.68;0.000;0.000;78.77;0.000;
1;140;7.500;2.000;-3.600;min;0.000;-0.001;-84.40;0.000;-0.001;-84.83;0.000;0.000;-78.77;0.000;
1;141;8.000;2.000;-3.600;max;0.001;0.000;86.99;0.001;0.000;85.87;0.000;0.000;79.93;0.000;
1;141;8.000;2.000;-3.600;min;0.000;-0.001;-86.39;0.000;-0.001;-86.62;0.000;0.000;-79.93;0.000;
1;142;8.500;2.000;-3.600;max;0.001;0.000;83.83;0.001;0.000;82.47;0.000;0.000;82.73;0.000;
1;142;8.500;2.000;-3.600;min;0.000;-0.001;-82.68;0.000;-0.001;-82.86;0.000;0.000;-82.73;0.000;
1;143;9.000;2.000;-3.600;max;0.001;0.000;81.07;0.001;0.000;79.99;0.000;0.000;83.45;0.000;
1;143;9.000;2.000;-3.600;min;0.000;-0.001;-79.50;0.000;-0.001;-80.18;0.000;0.000;-83.45;0.000;
1;144;9.500;2.000;-3.600;max;0.001;0.000;83.66;0.001;0.000;82.30;0.000;0.000;82.42;0.000;
1;144;9.500;2.000;-3.600;min;0.000;-0.001;-82.52;0.000;-0.001;-82.67;0.000;0.000;-82.42;0.000;
1;145;10.000;2.000;-3.600;max;0.001;0.000;87.07;0.001;0.000;86.07;0.000;0.000;79.95;0.000;
1;145;10.000;2.000;-3.600;min;0.000;-0.001;-86.55;0.000;-0.001;-86.73;0.000;0.000;-79.95;0.000;
1;146;10.500;2.000;-3.600;max;0.001;0.000;85.65;0.001;0.000;84.47;0.000;0.000;78.50;0.000;
1;146;10.500;2.000;-3.600;min;0.000;-0.001;-84.94;0.000;-0.001;-85.30;0.000;0.000;-78.50;0.000;
1;147;11.000;2.000;-3.600;max;0.001;0.000;79.99;0.001;0.000;77.98;0.000;0.000;78.72;0.000;
1;147;11.000;2.000;-3.600;min;0.000;-0.001;-78.57;0.000;-0.001;-79.01;0.000;0.000;-78.72;0.000;
1;148;11.500;2.000;-3.600;max;0.001;0.000;71.98;0.001;0.000;70.25;0.000;0.000;76.88;0.000;
1;148;11.500;2.000;-3.600;min;0.000;-0.001;-69.87;0.000;-0.001;-71.01;0.000;0.000;-76.88;0.000;
1;149;12.000;2.000;-3.600;max;0.001;0.000;66.23;0.001;0.000;64.83;0.000;0.000;73.92;0.000;
1;149;12.000;2.000;-3.600;min;0.000;-0.001;-63.87;0.000;-0.001;-65.19;0.000;0.000;-73.92;0.000;
1;150;12.500;2.000;-3.600;max;0.001;0.000;70.93;0.001;0.000;69.59;0.000;0.000;79.17;0.000;
1;150;12.500;2.000;-3.600;min;0.000;-0.001;-69.05;0.000;-0.001;-70.59;0.000;0.000;-79.17;0.000;
1;151;13.000;2.000;-3.600;max;0.001;0.000;78.65;0.001;0.000;77.16;0.000;0.000;80.73;0.000;
1;151;13.000;2.000;-3.600;min;0.000;-0.001;-77.59;0.000;-0.001;-78.11;0.000;0.000;-80.73;0.000;
1;152;13.500;2.000;-3.600;max;0.001;0.000;84.70;0.001;0.000;83.19;0.000;0.000;76.19;0.000;
1;152;13.500;2.000;-3.600;min;0.000;-0.001;-84.15;0.000;-0.001;-83.92;0.000;0.000;-76.19;0.000;
1;153;14.000;2.000;-3.600;max;0.001;0.000;85.68;0.001;0.000;84.67;0.000;0.000;67.83;0.000;
1;153;14.000;2.000;-3.600;min;0.000;-0.001;-85.27;0.000;-0.001;-85.18;0.000;0.000;-67.83;0.000;
1;154;14.500;2.000;-3.600;max;0.000;0.000;82.81;0.000;0.000;81.27;0.000;0.000;54.00;0.000;
1;154;14.500;2.000;-3.600;min;0.000;0.000;-82.55;0.000;0.000;-81.62;0.000;0.000;-54.00;0.000;
1;155;15.000;2.000;-3.600;max;0.000;0.000;78.89;0.000;0.000;74.13;0.000;0.000;68.00;0.000;
1;155;15.000;2.000;-3.600;min;0.000;0.000;-76.75;0.000;0.000;-74.59;0.000;0.000;-68.00;0.000;
1;156;0.000;2.500;-3.600;max;0.000;0.000;52.78;0.000;0.000;52.38;0.000;0.000;81.27;0.000;
1;156;0.000;2.500;-3.600;min;0.000;0.000;-49.47;0.000;0.000;-52.58;0.000;0.000;-81.27;0.000;
1;157;0.500;2.500;-3.600;max;0.000;0.000;55.80;0.000;0.000;55.14;0.000;0.000;66.83;0.000;
1;157;0.500;2.500;-3.600;min;0.000;0.000;-54.63;0.000;0.000;-55.64;0.000;0.000;-66.83;0.000;
1;158;1.000;2.500;-3.600;max;0.001;0.000;61.37;0.001;0.000;59.14;0.000;0.000;70.46;0.000;
1;158;1.000;2.500;-3.600;min;0.000;-0.001;-57.20;0.000;-0.001;-60.06;0.000;0.000;-70.46;0.000;
1;159;1.500;2.500;-3.600;max;0.001;0.000;63.83;0.001;0.000;60.50;0.000;0.000;58.31;0.000;
1;159;1.500;2.500;-3.600;min;0.000;-0.001;-61.54;0.000;-0.001;-62.51;0.000;0.000;-58.31;0.000;
1;160;2.000;2.500;-3.600;max;0.001;0.000;68.57;0.001;0.000;64.75;0.000;0.000;71.69;0.000;
1;160;2.000;2.500;-3.600;min;0.000;-0.001;-64.86;0.000;-0.001;-66.80;0.000;0.000;-71.69;0.000;
1;161;2.500;2.500;-3.600;max;0.000;0.000;74.55;0.000;0.000;71.28;0.000;0.000;73.53;0.000;
1;161;2.500;2.500;-3.600;min;0.000;0.000;-71.17;0.000;0.000;-71.73;0.000;0.000;-73.53;0.000;
1;162;3.000;2.500;-3.600;max;0.001;0.000;83.01;0.001;0.000;80.05;0.000;0.000;74.10;0.000;
1;162;3.000;2.500;-3.600;min;0.000;-0.001;-81.75;0.000;-0.001;-81.04;0.000;0.000;-74.10;0.000;
1;163;3.500;2.500;-3.600;max;0.001;0.000;85.54;0.001;0.000;83.35;0.000;0.000;77.03;0.000;
1;163;3.500;2.500;-3.600;min;0.000;-0.001;-84.70;0.000;-0.001;-84.61;0.000;0.000;-77.03;0.000;
1;164;4.000;2.500;-3.600;max;0.001;0.000;85.99;0.001;0.000;84.37;0.000;0.000;78.51;0.000;
1;164;4.000;2.500;-3.600;min;0.000;-0.001;-85.18;0.000;-0.001;-85.45;0.000;0.000;-78.51;0.000;
1;165;4.500;2.500;-3.600;max;0.001;0.000;86.06;0.001;0.000;84.61;0.000;0.000;79.65;0.000;
1;165;4.500;2.500;-3.600;min;0.000;-0.001;-85.22;0.000;-0.001;-85.65;0.000;0.000;-79.65;0.000;
1;166;5.000;2.500;-3.600;max;0.001;0.000;81.87;0.001;0.000;79.97;0.000;0.000;81.86;0.000;
1;166;5.000;2.500;-3.600;min;0.000;-0.001;-80.18;0.000;-0.001;-81.05;0.000;0.000;-81.86;0.000;
1;167;5.500;2.500;-3.600;max;0.001;0.000;73.44;0.001;0.000;72.41;0.000;0.000;84.49;0.000;
1;167;5.500;2.500;-3.600;min;0.000;-0.001;-70.59;0.000;-0.001;-73.27;0.000;0.000;-84.49;0.000;
1;168;6.000;2.500;-3.600;max;0.001;0.000;66.52;0.001;0.000;65.38;0.000;0.000;80.91;0.000;
1;168;6.000;2.500;-3.600;min;0.000;-0.001;-62.57;0.000;-0.001;-65.74;0.000;0.000;-80.91;0.000;
1;169;6.500;2.500;-3.600;max;0.001;0.000;72.74;0.001;0.000;71.25;0.000;0.000;82.48;0.000;
1;169;6.500;2.500;-3.600;min;0.000;-0.001;-69.18;0.000;-0.001;-72.13;0.000;0.000;-82.48;0.000;
1;170;7.000;2.500;-3.600;max;0.001;0.000;81.96;0.001;0.000;79.47;0.000;0.000;80.37;0.000;
1;170;7.000;2.500;-3.600;min;0.000;-0.001;-79.92;0.000;-0.001;-80.96;0.000;0.000;-80.37;0.000;
1;171;7.500;2.500;-3.600;max;0.001;0.000;87.56;0.001;0.000;86.38;0.000;0.000;78.85;0.000;
1;171;7.500;2.500;-3.600;min;0.000;-0.001;-86.90;0.000;-0.001;-87.26;0.000;0.000;-78.85;0.000;
1;172;8.000;2.500;-3.600;max;0.001;0.000;88.63;0.001;0.000;87.87;0.000;0.000;79.63;0.000;
1;172;8.000;2.500;-3.600;min;0.000;-0.001;-88.25;0.000;-0.001;-88.41;0.000;0.000;-79.63;0.000;
1;173;8.500;2.500;-3.600;max;0.001;0.000;83.83;0.001;0.000;82.12;0.000;0.000;82.93;0.000;
1;173;8.500;2.500;-3.600;min;0.000;-0.001;-82.21;0.000;-0.001;-82.61;0.000;0.000;-82.93;0.000;
1;174;9.000;2.500;-3.600;max;0.001;0.000;80.01;0.001;0.000;79.00;0.000;0.000;85.11;0.000;
1;174;9.000;2.500;-3.600;min;0.000;-0.001;-77.62;0.000;-0.001;-79.22;0.000;0.000;-85.11;0.000;
1;175;9.500;2.500;-3.600;max;0.001;0.000;83.70;0.001;0.000;82.08;0.000;0.000;82.91;0.000;
1;175;9.500;2.500;-3.600;min;0.000;-0.001;-82.11;0.000;-0.001;-82.47;0.000;0.000;-82.91;0.000;
1;176;10.000;2.500;-3.600;max;0.001;0.000;88.65;0.001;0.000;87.97;0.000;0.000;79.76;0.000;
1;176;10.000;2.500;-3.600;min;0.000;-0.001;-88.32;0.000;-0.001;-88.44;0.000;0.000;-79.76;0.000;
1;177;10.500;2.500;-3.600;max;0.001;0.000;87.76;0.001;0.000;86.88;0.000;0.000;78.33;0.000;
1;177;10.500;2.500;-3.600;min;0.000;-0.001;-87.27;0.000;-0.001;-87.51;0.000;0.000;-78.33;0.000;
1;178;11.000;2.500;-3.600;max;0.001;0.000;81.46;0.001;0.000;79.25;0.000;0.000;79.52;0.000;
1;178;11.000;2.500;-3.600;min;0.000;-0.001;-79.97;0.000;-0.001;-80.64;0.000;0.000;-79.52;0.000;
1;179;11.500;2.500;-3.600;max;0.001;0.000;71.44;0.001;0.000;70.36;0.000;0.000;82.42;0.000;
1;179;11.500;2.500;-3.600;min;0.000;-0.001;-69.18;0.000;-0.001;-71.37;0.000;0.000;-82.42;0.000;
1;180;12.000;2.500;-3.600;max;0.001;0.000;63.53;0.001;0.000;62.60;0.000;0.000;76.35;0.000;
1;180;12.000;2.500;-3.600;min;0.000;-0.001;-61.11;0.000;-0.001;-62.85;0.000;0.000;-76.35;0.000;
1;181;12.500;2.500;-3.600;max;0.001;0.000;69.41;0.001;0.000;68.75;0.000;0.000;84.58;0.000;
1;181;12.500;2.500;-3.600;min;0.000;-0.001;-67.39;0.000;-0.001;-69.90;0.000;0.000;-84.58;0.000;
1;182;13.000;2.500;-3.600;max;0.001;0.000;79.30;0.001;0.000;77.59;0.000;0.000;79.74;0.000;
1;182;13.000;2.500;-3.600;min;0.000;-0.001;-78.28;0.000;-0.001;-78.53;0.000;0.000;-79.74;0.000;
1;183;13.500;2.500;-3.600;max;0.001;0.000;86.67;0.001;0.000;85.99;0.000;0.000;71.52;0.000;
1;183;13.500;2.500;-3.600;min;0.000;-0.001;-86.37;0.000;-0.001;-86.36;0.000;0.000;-71.52;0.000;
1;184;14.000;2.500;-3.600;max;0.001;0.000;88.21;0.001;0.000;87.82;0.000;0.000;62.89;0.000;
1;184;14.000;2.500;-3.600;min;0.000;-0.001;-88.06;0.000;-0.001;-88.00;0.000;0.000;-62.89;0.000;
1;185;14.500;2.500;-3.600;max;0.000;0.000;85.89;0.000;0.000;84.62;0.000;0.000;52.65;0.000;
1;185;14.500;2.500;-3.600;min;0.000;0.000;-85.77;0.000;0.000;-84.82;0.000;0.000;-52.65;0.000;
1;186;15.000;2.500;-3.600;max;0.000;0.000;81.76;0.000;0.000;77.27;0.000;0.000;67.99;0.000;
1;186;15.000;2.500;-3.600;min;0.000;0.000;-80.40;0.000;0.000;-77.66;0.000;0.000;-67.99;0.000;
1;187;0.000;3.000;-3.600;max;0.000;0.000;55.85;0.000;0.000;55.43;0.000;0.000;84.58;0.000;
1;187;0.000;3.000;-3.600;min;0.000;0.000;-52.05;0.000;0.000;-56.55;0.000;0.000;-84.58;0.000;
1;188;0.500;3.000;-3.600;max;0.000;0.000;56.36;0.000;0.000;55.81;0.000;0.000;71.37;0.000;
1;188;0.500;3.000;-3.600;min;0.000;0.000;-54.97;0.000;0.000;-56.22;0.000;0.000;-71.37;0.000;
1;189;1.000;3.000;-3.600;max;0.001;0.000;57.68;0.001;0.000;57.30;0.000;0.000;77.77;0.000;
1;189;1.000;3.000;-3.600;min;0.000;-0.001;-56.36;0.000;-0.001;-58.49;0.000;0.000;-77.77;0.000;
1;190;1.500;3.000;-3.600;max;0.001;0.000;59.99;0.001;0.000;58.29;0.000;0.000;70.58;0.000;
1;190;1.500;3.000;-3.600;min;0.000;-0.001;-57.03;0.000;-0.001;-58.89;0.000;0.000;-70.58;0.000;
1;191;2.000;3.000;-3.600;max;0.000;0.000;62.08;0.000;0.000;60.28;0.000;0.000;77.98;0.000;
1;191;2.000;3.000;-3.600;min;0.000;0.000;-58.13;0.000;0.000;-61.43;0.000;0.000;-77.98;0.000;
1;192;2.500;3.000;-3.600;max;0.000;0.000;69.91;0.000;0.000;67.72;0.000;0.000;82.00;0.000;
1;192;2.500;3.000;-3.600;min;0.000;0.000;-62.94;0.000;0.000;-68.61;0.000;0.000;-82.00;0.000;
1;193;3.000;3.000;-3.600;max;0.001;0.000;82.01;0.001;0.000;79.96;0.000;0.000;82.89;0.000;
1;193;3.000;3.000;-3.600;min;0.000;-0.001;-79.02;0.000;-0.001;-80.48;0.000;0.000;-82.89;0.000;
1;194;3.500;3.000;-3.600;max;0.001;0.000;84.96;0.001;0.000;82.88;0.000;0.000;82.11;0.000;
1;194;3.500;3.000;-3.600;min;0.000;-0.001;-83.64;0.000;-0.001;-83.35;0.000;0.000;-82.11;0.000;
1;195;4.000;3.000;-3.600;max;0.001;0.000;86.11;0.001;0.000;83.84;0.000;0.000;80.94;0.000;
1;195;4.000;3.000;-3.600;min;0.000;-0.001;-85.01;0.000;-0.001;-85.42;0.000;0.000;-80.94;0.000;
1;196;4.500;3.000;-3.600;max;0.001;0.000;87.14;0.001;0.000;85.72;0.000;0.000;79.47;0.000;
1;196;4.500;3.000;-3.600;min;0.000;-0.001;-86.33;0.000;-0.001;-86.78;0.000;0.000;-79.47;0.000;
1;197;5.000;3.000;-3.600;max;0.001;0.000;84.43;0.001;0.000;81.98;0.000;0.000;78.77;0.000;
1;197;5.000;3.000;-3.600;min;0.000;-0.001;-83.10;0.000;-0.001;-83.72;0.000;0.000;-78.77;0.000;
1;198;5.500;3.000;-3.600;max;0.001;0.000;74.61;0.001;0.000;73.10;0.000;0.000;82.47;0.000;
1;198;5.500;3.000;-3.600;min;0.000;-0.001;-71.78;0.000;-0.001;-74.13;0.000;0.000;-82.47;0.000;
1;199;6.000;3.000;-3.600;max;0.001;0.000;66.07;0.001;0.000;65.43;0.000;0.000;84.33;0.000;
1;199;6.000;3.000;-3.600;min;0.000;-0.001;-62.43;0.000;-0.001;-65.79;0.000;0.000;-84.33;0.000;
1;200;6.500;3.000;-3.600;max;0.001;0.000;74.05;0.001;0.000;72.23;0.000;0.000;81.67;0.000;
1;200;6.500;3.000;-3.600;min;0.000;-0.001;-70.67;0.000;-0.001;-73.33;0.000;0.000;-81.67;0.000;
1;201;7.000;3.000;-3.600;max;0.001;0.000;84.75;0.001;0.000;81.98;0.000;0.000;77.80;0.000;
1;201;7.000;3.000;-3.600;min;0.000;-0.001;-83.17;0.000;-0.001;-84.07;0.000;0.000;-77.80;0.000;
1;202;7.500;3.000;-3.600;max;0.001;0.000;89.05;0.001;0.000;88.45;0.000;0.000;77.52;0.000;
1;202;7.500;3.000;-3.600;min;0.000;-0.001;-88.70;0.000;-0.001;-88.92;0.000;0.000;-77.52;0.000;
1;203;8.000;3.000;-3.600;max;0.001;0.000;89.68;0.001;0.000;89.73;0.000;0.000;78.54;0.000;
1;203;8.000;3.000;-3.600;min;0.000;-0.001;-89.77;0.000;-0.001;-89.60;0.000;0.000;-78.54;0.000;
1;204;8.500;3.000;-3.600;max;0.001;0.000;83.72;0.001;0.000;81.21;0.000;0.000;81.61;0.000;
1;204;8.500;3.000;-3.600;min;0.000;-0.001;-81.62;0.000;-0.001;-82.23;0.000;0.000;-81.61;0.000;
1;205;9.000;3.000;-3.600;max;0.001;0.000;77.71;0.001;0.000;77.00;0.000;0.000;86.87;0.000;
1;205;9.000;3.000;-3.600;min;0.000;-0.001;-74.32;0.000;-0.001;-77.27;0.000;0.000;-86.87;0.000;
1;206;9.500;3.000;-3.600;max;0.001;0.000;83.55;0.001;0.000;81.30;0.000;0.000;82.00;0.000;
1;206;9.500;3.000;-3.600;min;0.000;-0.001;-81.48;0.000;-0.001;-82.05;0.000;0.000;-82.00;0.000;
1;207;10.000;3.000;-3.600;max;0.001;0.000;89.55;0.001;0.000;89.61;0.000;0.000;78.52;0.000;
1;207;10.000;3.000;-3.600;min;0.000;-0.001;-89.66;0.000;-0.001;-89.45;0.000;0.000;-78.52;0.000;
1;208;10.500;3.000;-3.600;max;0.001;0.000;89.32;0.001;0.000;88.95;0.000;0.000;76.61;0.000;
1;208;10.500;3.000;-3.600;min;0.000;-0.001;-89.11;0.000;-0.001;-89.23;0.000;0.000;-76.61;0.000;
1;209;11.000;3.000;-3.600;max;0.001;0.000;84.66;0.001;0.000;82.44;0.000;0.000;75.75;0.000;
1;209;11.000;3.000;-3.600;min;0.000;-0.001;-83.49;0.000;-0.001;-83.97;0.000;0.000;-75.75;0.000;
1;210;11.500;3.000;-3.600;max;0.001;0.000;73.67;0.001;0.000;71.94;0.000;0.000;79.71;0.000;
1;210;11.500;3.000;-3.600;min;0.000;-0.001;-71.58;0.000;-0.001;-73.13;0.000;0.000;-79.71;0.000;
1;211;12.000;3.000;-3.600;max;0.001;0.000;64.34;0.001;0.000;63.79;0.000;0.000;80.74;0.000;
1;211;12.000;3.000;-3.600;min;0.000;-0.001;-62.26;0.000;-0.001;-63.98;0.000;0.000;-80.74;0.000;
1;212;12.500;3.000;-3.600;max;0.001;0.000;71.69;0.001;0.000;70.41;0.000;0.000;80.17;0.000;
1;212;12.500;3.000;-3.600;min;0.000;-0.001;-70.14;0.000;-0.001;-71.68;0.000;0.000;-80.17;0.000;
1;213;13.000;3.000;-3.600;max;0.001;0.000;82.97;0.001;0.000;81.48;0.000;0.000;69.41;0.000;
1;213;13.000;3.000;-3.600;min;0.000;-0.001;-82.45;0.000;-0.001;-82.13;0.000;0.000;-69.41;0.000;
1;214;13.500;3.000;-3.600;max;0.001;0.000;88.78;0.001;0.000;88.54;0.000;0.000;63.21;0.000;
1;214;13.500;3.000;-3.600;min;0.000;-0.001;-88.70;0.000;-0.001;-88.63;0.000;0.000;-63.21;0.000;
1;215;14.000;3.000;-3.600;max;0.001;0.000;88.02;0.001;0.000;87.54;0.000;0.000;58.39;0.000;
1;215;14.000;3.000;-3.600;min;0.000;-0.001;-87.91;0.000;-0.001;-87.68;0.000;0.000;-58.39;0.000;
1;216;14.500;3.000;-3.600;max;0.000;0.000;84.09;0.000;0.000;81.61;0.000;0.000;53.54;0.000;
1;216;14.500;3.000;-3.600;min;0.000;0.000;-83.83;0.000;0.000;-82.07;0.000;0.000;-53.54;0.000;
1;217;15.000;3.000;-3.600;max;0.000;0.000;77.88;0.000;0.000;74.88;0.000;0.000;68.84;0.000;
1;217;15.000;3.000;-3.600;min;0.000;0.000;-76.63;0.000;0.000;-75.36;0.000;0.000;-68.84;0.000;
1;218;0.000;3.500;-3.600;max;0.001;0.000;64.90;0.001;0.000;63.19;0.000;0.000;70.36;0.000;
1;218;0.000;3.500;-3.600;min;0.000;-0.001;-62.31;0.000;-0.001;-63.48;0.000;0.000;-70.36;0.000;
1;219;0.500;3.500;-3.600;max;0.001;0.000;61.06;0.001;0.000;58.84;0.000;0.000;66.47;0.000;
1;219;0.500;3.500;-3.600;min;0.000;-0.001;-58.04;0.000;-0.001;-59.67;0.000;0.000;-66.47;0.000;
1;220;1.000;3.500;-3.600;max;0.001;0.000;59.87;0.001;0.000;58.68;0.000;0.000;78.63;0.000;
1;220;1.000;3.500;-3.600;min;0.000;-0.001;-57.24;0.000;-0.001;-59.59;0.000;0.000;-78.63;0.000;
1;221;1.500;3.500;-3.600;max;0.001;0.000;59.67;0.001;0.000;58.91;0.000;0.000;82.83;0.000;
1;221;1.500;3.500;-3.600;min;0.000;-0.001;-57.97;0.000;-0.001;-59.25;0.000;0.000;-82.83;0.000;
1;222;2.000;3.500;-3.600;max;0.000;0.000;58.91;0.000;0.000;58.05;0.000;0.000;83.12;0.000;
1;222;2.000;3.500;-3.600;min;0.000;0.000;-56.85;0.000;0.000;-58.44;0.000;0.000;-83.12;0.000;
1;223;2.500;3.500;-3.600;max;0.000;0.000;64.12;0.000;0.000;62.31;0.000;0.000;83.30;0.000;
1;223;2.500;3.500;-3.600;min;0.000;0.000;-57.94;0.000;0.000;-63.14;0.000;0.000;-83.30;0.000;
1;224;3.000;3.500;-3.600;max;0.001;0.000;78.07;0.001;0.000;75.92;0.000;0.000;82.99;0.000;
1;224;3.000;3.500;-3.600;min;0.000;-0.001;-73.11;0.000;-0.001;-76.87;0.000;0.000;-82.99;0.000;
1;225;3.500;3.500;-3.600;max;0.001;0.000;84.96;0.001;0.000;82.46;0.000;0.000;81.34;0.000;
1;225;3.500;3.500;-3.600;min;0.000;-0.001;-83.21;0.000;-0.001;-83.61;0.000;0.000;-81.34;0.000;
1;226;4.000;3.500;-3.600;max;0.001;0.000;86.33;0.001;0.000;84.31;0.000;0.000;83.58;0.000;
1;226;4.000;3.500;-3.600;min;0.000;-0.001;-84.79;0.000;-0.001;-85.93;0.000;0.000;-83.58;0.000;
1;227;4.500;3.500;-3.600;max;0.001;0.000;87.68;0.001;0.000;86.31;0.000;0.000;82.00;0.000;
1;227;4.500;3.500;-3.600;min;0.000;-0.001;-86.77;0.000;-0.001;-87.45;0.000;0.000;-82.00;0.000;
1;228;5.000;3.500;-3.600;max;0.001;0.000;87.00;0.001;0.000;85.50;0.000;0.000;76.29;0.000;
1;228;5.000;3.500;-3.600;min;0.000;-0.001;-86.03;0.000;-0.001;-86.71;0.000;0.000;-76.29;0.000;
1;229;5.500;3.500;-3.600;max;0.002;0.000;81.01;0.002;0.000;77.42;0.000;0.000;72.20;0.000;
1;229;5.500;3.500;-3.600;min;0.000;-0.002;-79.41;0.000;-0.002;-79.45;0.000;0.000;-72.20;0.000;
1;230;6.000;3.500;-3.600;max;0.002;0.000;70.31;0.002;0.000;68.76;0.000;0.000;73.90;0.000;
1;230;6.000;3.500;-3.600;min;0.000;-0.002;-68.43;0.000;-0.002;-69.14;0.000;0.000;-73.90;0.000;
1;231;6.500;3.500;-3.600;max;0.002;0.000;80.95;0.002;0.000;77.11;0.000;0.000;72.67;0.000;
1;231;6.500;3.500;-3.600;min;0.000;-0.002;-79.08;0.000;-0.002;-79.49;0.000;0.000;-72.67;0.000;
1;232;7.000;3.500;-3.600;max;0.001;0.000;87.24;0.001;0.000;85.61;0.000;0.000;76.35;0.000;
1;232;7.000;3.500;-3.600;min;0.000;-0.001;-86.13;0.000;-0.001;-86.98;0.000;0.000;-76.35;0.000;
1;233;7.500;3.500;-3.600;max;0.001;0.000;89.01;0.001;0.000;88.29;0.000;0.000;80.26;0.000;
1;233;7.500;3.500;-3.600;min;0.000;-0.001;-88.51;0.000;-0.001;-88.91;0.000;0.000;-80.26;0.000;
1;234;8.000;3.500;-3.600;max;0.001;0.000;89.56;0.001;0.000;89.68;0.000;0.000;79.61;0.000;
1;234;8.000;3.500;-3.600;min;0.000;-0.001;-89.71;0.000;-0.001;-89.49;0.000;0.000;-79.61;0.000;
1;235;8.500;3.500;-3.600;max;0.001;0.000;86.13;0.001;0.000;83.08;0.000;0.000;77.99;0.000;
1;235;8.500;3.500;-3.600;min;0.000;-0.001;-84.66;0.000;-0.001;-85.36;0.000;0.000;-77.99;0.000;
1;236;9.000;3.500;-3.600;max;0.001;0.000;75.11;0.001;0.000;73.27;0.000;0.000;79.56;0.000;
1;236;9.000;3.500;-3.600;min;0.000;-0.001;-72.11;0.000;-0.001;-73.61;0.000;0.000;-79.56;0.000;
1;237;9.500;3.500;-3.600;max;0.001;0.000;85.93;0.001;0.000;83.07;0.000;0.000;77.73;0.000;
1;237;9.500;3.500;-3.600;min;0.000;-0.001;-84.58;0.000;-0.001;-85.12;0.000;0.000;-77.73;0.000;
1;238;10.000;3.500;-3.600;max;0.001;0.000;89.30;0.001;0.000;89.46;0.000;0.000;78.68;0.000;
1;238;10.000;3.500;-3.600;min;0.000;-0.001;-89.51;0.000;-0.001;-89.19;0.000;0.000;-78.68;0.000;
1;239;10.500;3.500;-3.600;max;0.001;0.000;89.26;0.001;0.000;88.80;0.000;0.000;79.61;0.000;
1;239;10.500;3.500;-3.600;min;0.000;-0.001;-88.95;0.000;-0.001;-89.19;0.000;0.000;-79.61;0.000;
1;240;11.000;3.500;-3.600;max;0.001;0.000;87.31;0.001;0.000;85.84;0.000;0.000;75.78;0.000;
1;240;11.000;3.500;-3.600;min;0.000;-0.001;-86.32;0.000;-0.001;-87.06;0.000;0.000;-75.78;0.000;
1;241;11.500;3.500;-3.600;max;0.002;0.000;81.09;0.002;0.000;77.63;0.000;0.000;70.51;0.000;
1;241;11.500;3.500;-3.600;min;0.000;-0.002;-79.61;0.000;-0.002;-79.65;0.000;0.000;-70.51;0.000;
1;242;12.000;3.500;-3.600;max;0.002;0.000;69.74;0.002;0.000;68.18;0.000;0.000;66.35;0.000;
1;242;12.000;3.500;-3.600;min;0.000;-0.002;-68.70;0.000;-0.002;-68.53;0.000;0.000;-66.35;0.000;
1;243;12.500;3.500;-3.600;max;0.002;0.000;79.57;0.002;0.000;77.03;0.000;0.000;59.14;0.000;
1;243;12.500;3.500;-3.600;min;0.000;-0.002;-79.11;0.000;-0.002;-77.65;0.000;0.000;-59.14;0.000;
1;244;13.000;3.500;-3.600;max;0.001;0.000;86.58;0.001;0.000;85.85;0.000;0.000;61.67;0.000;
1;244;13.000;3.500;-3.600;min;0.000;-0.001;-86.29;0.000;-0.001;-86.22;0.000;0.000;-61.67;0.000;
1;245;13.500;3.500;-3.600;max;0.001;0.000;89.23;0.001;0.000;89.04;0.000;0.000;66.80;0.000;
1;245;13.500;3.500;-3.600;min;0.000;-0.001;-89.15;0.000;-0.001;-89.14;0.000;0.000;-66.80;0.000;
1;246;14.000;3.500;-3.600;max;0.001;0.000;87.15;0.001;0.000;86.36;0.000;0.000;65.17;0.000;
1;246;14.000;3.500;-3.600;min;0.000;-0.001;-86.79;0.000;-0.001;-86.81;0.000;0.000;-65.17;0.000;
1;247;14.500;3.500;-3.600;max;0.001;0.000;83.39;0.001;0.000;81.05;0.000;0.000;59.54;0.000;
1;247;14.500;3.500;-3.600;min;0.000;-0.001;-82.82;0.000;-0.001;-81.91;0.000;0.000;-59.54;0.000;
1;248;15.000;3.500;-3.600;max;0.001;0.000;74.75;0.001;0.000;71.69;0.000;0.000;55.05;0.000;
1;248;15.000;3.500;-3.600;min;0.000;-0.001;-74.19;0.000;-0.001;-71.87;0.000;0.000;-55.05;0.000;
1;249;0.000;4.000;-3.600;max;0.001;0.000;78.56;0.001;0.000;73.85;0.000;0.000;81.03;0.000;
1;249;0.000;4.000;-3.600;min;0.000;-0.001;-69.59;0.000;-0.001;-75.01;0.000;0.000;-81.03;0.000;
1;250;0.500;4.000;-3.600;max;0.001;0.000;74.14;0.001;0.000;70.47;0.000;0.000;82.74;0.000;
1;250;0.500;4.000;-3.600;min;0.000;-0.001;-69.58;0.000;-0.001;-73.31;0.000;0.000;-82.74;0.000;
1;251;1.000;4.000;-3.600;max;0.000;0.000;69.97;0.000;0.000;69.66;0.000;0.000;89.07;0.000;
1;251;1.000;4.000;-3.600;min;0.000;0.000;-68.02;0.000;0.000;-69.79;0.000;0.000;-89.07;0.000;
1;252;1.500;4.000;-3.600;max;0.000;0.000;68.61;0.000;0.000;68.40;0.000;0.000;89.30;0.000;
1;252;1.500;4.000;-3.600;min;0.000;0.000;-66.51;0.000;0.000;-68.52;0.000;0.000;-89.30;0.000;
1;253;2.000;4.000;-3.600;max;0.000;0.000;64.86;0.000;0.000;64.65;0.000;0.000;89.23;0.000;
1;253;2.000;4.000;-3.600;min;0.000;0.000;-63.04;0.000;0.000;-64.75;0.000;0.000;-89.23;0.000;
1;254;2.500;4.000;-3.600;max;0.000;0.000;76.00;0.000;0.000;73.43;0.000;0.000;82.33;0.000;
1;254;2.500;4.000;-3.600;min;0.000;0.000;-69.60;0.000;0.000;-74.06;0.000;0.000;-82.33;0.000;
1;255;3.000;4.000;-3.600;max;0.001;0.000;79.21;0.001;0.000;75.34;0.000;0.000;77.07;0.000;
1;255;3.000;4.000;-3.600;min;0.000;-0.001;-74.68;0.000;-0.001;-77.08;0.000;0.000;-77.07;0.000;
1;256;3.500;4.000;-3.600;max;0.001;0.000;83.91;0.001;0.000;82.21;0.000;0.000;85.36;0.000;
1;256;3.500;4.000;-3.600;min;0.000;-0.001;-81.98;0.000;-0.001;-83.73;0.000;0.000;-85.36;0.000;
1;257;4.000;4.000;-3.600;max;0.001;0.000;85.95;0.001;0.000;85.91;0.000;0.000;89.87;0.000;
1;257;4.000;4.000;-3.600;min;0.000;-0.001;-85.83;0.000;-0.001;-85.92;0.000;0.000;-89.87;0.000;
1;258;4.500;4.000;-3.600;max;0.001;0.000;87.52;0.001;0.000;87.48;0.000;0.000;89.90;0.000;
1;258;4.500;4.000;-3.600;min;0.000;-0.001;-87.44;0.000;-0.001;-87.50;0.000;0.000;-89.90;0.000;
1;259;5.000;4.000;-3.600;max;0.001;0.000;87.65;0.001;0.000;87.63;0.000;0.000;89.96;0.000;
1;259;5.000;4.000;-3.600;min;0.000;-0.001;-87.59;0.000;-0.001;-87.64;0.000;0.000;-89.96;0.000;
1;260;5.500;4.000;-3.600;max;0.003;0.000;86.32;0.003;0.000;84.82;0.000;0.000;81.44;0.000;
1;260;5.500;4.000;-3.600;min;0.000;-0.003;-85.05;0.000;-0.003;-86.19;0.000;0.000;-81.44;0.000;
1;261;6.000;4.000;-3.600;max;0.005;0.000;73.47;0.005;0.000;69.98;0.001;0.000;76.40;0.001;
1;261;6.000;4.000;-3.600;min;0.000;-0.005;-69.06;0.000;-0.005;-71.82;0.000;-0.001;-76.40;0.001;
1;262;6.500;4.000;-3.600;max;0.003;0.000;86.45;0.003;0.000;84.91;0.000;0.000;81.59;0.000;
1;262;6.500;4.000;-3.600;min;0.000;-0.003;-85.14;0.000;-0.003;-86.33;0.000;0.000;-81.59;0.000;
1;263;7.000;4.000;-3.600;max;0.001;0.000;87.21;0.001;0.000;87.17;0.000;0.000;89.91;0.000;
1;263;7.000;4.000;-3.600;min;0.000;-0.001;-87.12;0.000;-0.001;-87.19;0.000;0.000;-89.91;0.000;
1;264;7.500;4.000;-3.600;max;0.001;0.000;87.75;0.001;0.000;87.71;0.000;0.000;89.88;0.000;
1;264;7.500;4.000;-3.600;min;0.000;-0.001;-87.68;0.000;-0.001;-87.73;0.000;0.000;-89.88;0.000;
1;265;8.000;4.000;-3.600;max;0.001;0.000;87.85;0.001;0.000;87.82;0.000;0.000;89.91;0.000;
1;265;8.000;4.000;-3.600;min;0.000;-0.001;-87.77;0.000;-0.001;-87.83;0.000;0.000;-89.91;0.000;
1;266;8.500;4.000;-3.600;max;0.002;0.000;87.33;0.002;0.000;85.65;0.000;0.000;84.18;0.000;
1;266;8.500;4.000;-3.600;min;0.000;-0.002;-85.83;0.000;-0.002;-87.26;0.000;0.000;-84.18;0.000;
1;267;9.000;4.000;-3.600;max;0.003;0.000;74.95;0.003;0.000;71.54;0.000;0.000;77.08;0.000;
1;267;9.000;4.000;-3.600;min;0.000;-0.003;-70.62;0.000;-0.003;-72.91;0.000;0.000;-77.08;0.000;
1;268;9.500;4.000;-3.600;max;0.001;0.000;87.04;0.001;0.000;85.97;0.000;0.000;81.87;0.000;
1;268;9.500;4.000;-3.600;min;0.000;-0.001;-86.12;0.000;-0.001;-86.96;0.000;0.000;-81.87;0.000;
1;269;10.000;4.000;-3.600;max;0.001;0.000;87.85;0.001;0.000;87.83;0.000;0.000;89.92;0.000;
1;269;10.000;4.000;-3.600;min;0.000;-0.001;-87.78;0.000;-0.001;-87.84;0.000;0.000;-89.92;0.000;
1;270;10.500;4.000;-3.600;max;0.001;0.000;87.93;0.001;0.000;87.89;0.000;0.000;89.87;0.000;
1;270;10.500;4.000;-3.600;min;0.000;-0.001;-87.86;0.000;-0.001;-87.91;0.000;0.000;-89.87;0.000;
1;271;11.000;4.000;-3.600;max;0.001;0.000;87.27;0.001;0.000;87.24;0.000;0.000;89.92;0.000;
1;271;11.000;4.000;-3.600;min;0.000;-0.001;-87.20;0.000;-0.001;-87.25;0.000;0.000;-89.92;0.000;
1;272;11.500;4.000;-3.600;max;0.003;0.000;86.53;0.003;0.000;84.84;0.000;0.000;82.29;0.000;
1;272;11.500;4.000;-3.600;min;0.000;-0.003;-85.06;0.000;-0.003;-86.42;0.000;0.000;-82.29;0.000;
1;273;12.000;4.000;-3.600;max;0.005;0.000;73.41;0.005;0.000;69.86;0.001;0.000;75.90;0.001;
1;273;12.000;4.000;-3.600;min;0.000;-0.005;-69.09;0.000;-0.005;-71.80;0.000;-0.001;-75.90;0.001;
1;274;12.500;4.000;-3.600;max;0.002;0.000;86.20;0.002;0.000;85.07;0.000;0.000;78.32;0.000;
1;274;12.500;4.000;-3.600;min;0.000;-0.002;-85.31;0.000;-0.002;-86.04;0.000;0.000;-78.32;0.000;
1;275;13.000;4.000;-3.600;max;0.001;0.000;87.90;0.001;0.000;87.88;0.000;0.000;89.87;0.000;
1;275;13.000;4.000;-3.600;min;0.000;-0.001;-87.82;0.000;-0.001;-87.89;0.000;0.000;-89.87;0.000;
1;276;13.500;4.000;-3.600;max;0.001;0.000;87.68;0.001;0.000;87.56;0.000;0.000;89.24;0.000;
1;276;13.500;4.000;-3.600;min;0.000;-0.001;-87.51;0.000;-0.001;-87.62;0.000;0.000;-89.24;0.000;
1;277;14.000;4.000;-3.600;max;0.001;0.000;85.25;0.001;0.000;84.95;0.000;0.000;88.47;0.000;
1;277;14.000;4.000;-3.600;min;0.000;-0.001;-84.90;0.000;-0.001;-85.20;0.000;0.000;-88.47;0.000;
1;278;14.500;4.000;-3.600;max;0.001;0.000;83.60;0.001;0.000;80.97;0.000;0.000;81.66;0.000;
1;278;14.500;4.000;-3.600;min;0.000;-0.001;-80.94;0.000;-0.001;-83.33;0.000;0.000;-81.66;0.000;
1;279;15.000;4.000;-3.600;max;0.001;0.000;75.86;0.001;0.000;71.07;0.000;0.000;78.53;0.000;
1;279;15.000;4.000;-3.600;min;0.000;-0.001;-68.74;0.000;-0.001;-73.80;0.000;0.000;-78.53;0.000;
Extremes;261;6.000;4.000;-3.600;σ_1,+;0.005;0.000;73.47;0.005;0.000;69.98;0.001;0.000;76.40;0.001;
1;1;0.000;0.000;-3.600;σ_1,+;0.000;-0.001;-80.35;0.000;-0.001;-82.94;0.000;-0.001;-77.78;0.000;
1;1;0.000;0.000;-3.600;σ_2,+;0.001;0.000;85.07;0.001;0.000;70.24;0.001;0.000;77.78;0.000;
1;261;6.000;4.000;-3.600;σ_2,+;0.000;-0.005;-69.06;0.000;-0.005;-71.82;0.000;-0.001;-76.40;0.001;
1;261;6.000;4.000;-3.600;σ_1,-;0.005;0.000;73.47;0.005;0.000;69.98;0.001;0.000;76.40;0.001;
1;1;0.000;0.000;-3.600;σ_1,-;0.000;-0.001;-80.35;0.000;-0.001;-82.94;0.000;-0.001;-77.78;0.000;
1;1;0.000;0.000;-3.600;σ_2,-;0.001;0.000;85.07;0.001;0.000;70.24;0.001;0.000;77.78;0.000;
1;261;6.000;4.000;-3.600;σ_2,-;0.000;-0.005;-69.06;0.000;-0.005;-71.82;0.000;-0.001;-76.40;0.001;
1;1;0.000;0.000;-3.600;σ_1,m;0.001;0.000;85.07;0.001;0.000;70.24;0.001;0.000;77.78;0.000;
1;1;0.000;0.000;-3.600;σ_1,m;0.000;-0.001;-80.35;0.000;-0.001;-82.94;0.000;-0.001;-77.78;0.000;
1;1;0.000;0.000;-3.600;σ_2,m;0.001;0.000;85.07;0.001;0.000;70.24;0.001;0.000;77.78;0.000;
1;1;0.000;0.000;-3.600;σ_2,m;0.000;-0.001;-80.35;0.000;-0.001;-82.94;0.000;-0.001;-77.78;0.000;
1;261;6.000;4.000;-3.600;τ_max;0.005;0.000;73.47;0.005;0.000;69.98;0.001;0.000;76.40;0.001;
1;221;1.500;3.500;-3.600;τ_max;0.001;0.000;59.67;0.001;0.000;58.91;0.000;0.000;82.83;0.000;
Total;;;;;;0.005;0.000;89.68;0.005;0.000;89.73;0.001;0.000;89.96;0.001;
1;;;;;;0.000;-0.005;-89.77;0.000;-0.005;-89.60;0.000;-0.001;-89.96;0.000;
;;;;;;;;;;;;;;;;
;Total max/min values with corresponding values;;;;;;;;;;;;;;;
1;261;6.000;4.000;-3.600;σ_1,+;0.005;0.000;73.47;0.005;0.000;69.98;0.001;0.000;76.40;0.001;
1;1;0.000;0.000;-3.600;σ_1,+;0.000;-0.001;-80.35;0.000;-0.001;-82.94;0.000;-0.001;-77.78;0.000;
1;1;0.000;0.000;-3.600;σ_2,+;0.001;0.000;85.07;0.001;0.000;70.24;0.001;0.000;77.78;0.000;
1;261;6.000;4.000;-3.600;σ_2,+;0.000;-0.005;-69.06;0.000;-0.005;-71.82;0.000;-0.001;-76.40;0.001;
1;261;6.000;4.000;-3.600;σ_1,-;0.005;0.000;73.47;0.005;0.000;69.98;0.001;0.000;76.40;0.001;
1;1;0.000;0.000;-3.600;σ_1,-;0.000;-0.001;-80.35;0.000;-0.001;-82.94;0.000;-0.001;-77.78;0.000;
1;1;0.000;0.000;-3.600;σ_2,-;0.001;0.000;85.07;0.001;0.000;70.24;0.001;0.000;77.78;0.000;
1;261;6.000;4.000;-3.600;σ_2,-;0.000;-0.005;-69.06;0.000;-0.005;-71.82;0.000;-0.001;-76.40;0.001;
1;1;0.000;0.000;-3.600;σ_1,m;0.001;0.000;85.07;0.001;0.000;70.24;0.001;0.000;77.78;0.000;
1;1;0.000;0.000;-3.600;σ_1,m;0.000;-0.001;-80.35;0.000;-0.001;-82.94;0.000;-0.001;-77.78;0.000;
1;1;0.000;0.000;-3.600;σ_2,m;0.001;0.000;85.07;0.001;0.000;70.24;0.001;0.000;77.78;0.000;
1;1;0.000;0.000;-3.600;σ_2,m;0.000;-0.001;-80.35;0.000;-0.001;-82.94;0.000;-0.001;-77.78;0.000;
1;261;6.000;4.000;-3.600;τ_max;0.005;0.000;73.47;0.005;0.000;69.98;0.001;0.000;76.40;0.001;
1;221;1.500;3.500;-3.600;τ_max;0.001;0.000;59.67;0.001;0.000;58.91;0.000;0.000;82.83;0.000;
;;;;;;;;;;;;;;;;
Total;;;;;;0.005;0.000;89.68;0.005;0.000;89.73;0.001;0.000;89.96;0.001;
max/min;;;;;;0.000;-0.005;-89.77;0.000;-0.005;-89.60;0.000;-0.001;-89.96;0.000;
