Surface No.;Grid;Grid Point Coordinates [m];;;;Principal Stresses [N/mm^2 ];;;;;;;;;;
;Point No.;X;Y;Z;;σ_1,+;σ_2,+;α_+ [deg];σ_1,-;σ_2,-;α_- [deg];σ_1,m;σ_2,m;α_m [deg];τ_max;Surface Comment
1;1;0.000;0.000;-3.600;;-0.190;-1.635;-73.49;1.451;0.155;15.99;-0.017;-0.093;-68.98;0.437;
1;2;0.500;0.000;-3.600;;0.033;-0.570;88.85;0.469;-0.039;-2.78;-0.001;-0.052;-82.81;0.223;
1;3;1.000;0.000;-3.600;;0.073;-0.037;55.48;0.007;-0.099;-49.58;0.000;-0.028;-88.82;0.115;
1;4;1.500;0.000;-3.600;;0.251;-0.001;13.07;0.000;-0.280;-77.38;0.000;-0.014;-81.47;0.071;
1;5;2.000;0.000;-3.600;;0.395;0.019;-1.56;-0.019;-0.396;88.63;0.001;-0.001;-67.55;0.032;
1;6;2.500;0.000;-3.600;;0.486;0.016;-5.38;-0.010;-0.455;85.30;0.016;0.003;-16.58;0.036;
1;7;3.000;0.000;-3.600;;0.089;-0.656;-47.56;0.573;-0.067;42.27;0.012;-0.042;-47.01;0.313;
1;8;3.500;0.000;-3.600;;0.068;-0.200;74.55;0.126;-0.091;-24.69;-0.001;-0.048;-81.79;0.220;
1;9;4.000;0.000;-3.600;;0.332;0.006;13.81;-0.009;-0.387;-78.22;0.000;-0.029;89.87;0.106;
1;10;4.500;0.000;-3.600;;0.464;0.015;3.92;-0.014;-0.506;-86.43;0.001;-0.021;89.96;0.048;
1;11;5.000;0.000;-3.600;;0.517;0.021;-1.73;-0.021;-0.549;88.40;0.000;-0.016;-89.59;0.018;
1;12;5.500;0.000;-3.600;;0.466;0.011;-9.15;-0.009;-0.485;81.69;0.002;-0.010;-82.42;0.086;
1;13;6.000;0.000;-3.600;;-0.075;-0.374;-49.13;0.316;0.062;41.32;-0.005;-0.030;-67.41;0.312;
1;14;6.500;0.000;-3.600;;0.187;-0.012;24.40;0.006;-0.251;-70.43;0.000;-0.035;-84.74;0.173;
1;15;7.000;0.000;-3.600;;0.473;0.017;6.41;-0.018;-0.526;-84.29;0.000;-0.027;89.75;0.071;
1;16;7.500;0.000;-3.600;;0.533;0.016;0.82;-0.015;-0.583;-89.25;0.001;-0.025;89.99;0.016;
1;17;8.000;0.000;-3.600;;0.503;0.020;-4.36;-0.020;-0.555;86.09;0.000;-0.026;-89.75;0.051;
1;18;8.500;0.000;-3.600;;0.274;0.009;-16.27;-0.011;-0.336;76.00;0.000;-0.032;85.44;0.144;
1;19;9.000;0.000;-3.600;;-0.142;-0.300;69.84;0.244;0.128;-22.05;-0.006;-0.029;77.95;0.312;
1;20;9.500;0.000;-3.600;;0.380;0.011;12.27;-0.010;-0.404;-78.88;0.002;-0.013;85.87;0.117;
1;21;10.000;0.000;-3.600;;0.510;0.021;3.53;-0.020;-0.543;-86.72;0.000;-0.017;89.61;0.035;
1;22;10.500;0.000;-3.600;;0.491;0.016;-1.75;-0.015;-0.533;88.40;0.001;-0.021;-89.93;0.028;
1;23;11.000;0.000;-3.600;;0.386;0.013;-9.00;-0.015;-0.440;82.17;0.000;-0.027;-89.78;0.085;
1;24;11.500;0.000;-3.600;;0.077;-0.080;-59.69;0.036;-0.125;46.29;-0.001;-0.045;81.84;0.193;
1;25;12.000;0.000;-3.600;;-0.007;-0.539;49.45;0.462;0.030;-39.94;0.012;-0.039;46.63;0.312;
1;26;12.500;0.000;-3.600;;0.438;0.012;9.42;-0.008;-0.410;-81.48;0.015;0.001;23.54;0.062;
1;27;13.000;0.000;-3.600;;0.404;0.022;1.22;-0.021;-0.410;-88.85;0.001;-0.003;87.13;0.016;
1;28;13.500;0.000;-3.600;;0.304;0.014;-7.12;-0.014;-0.329;83.43;0.000;-0.013;89.49;0.060;
1;29;14.000;0.000;-3.600;;0.142;-0.010;-35.16;-0.004;-0.180;62.47;0.000;-0.025;89.25;0.114;
1;30;14.500;0.000;-3.600;;0.041;-0.457;-86.81;0.362;-0.050;6.11;-0.002;-0.050;80.37;0.227;
1;31;15.000;0.000;-3.600;;-0.216;-1.492;74.40;1.301;0.178;-14.76;-0.018;-0.097;68.39;0.442;
1;32;0.000;0.500;-3.600;;-0.013;-0.728;-73.63;0.723;0.014;15.24;0.006;-0.008;-34.70;0.136;
1;33;0.500;0.500;-3.600;;0.044;-0.304;88.83;0.283;-0.055;-4.29;0.002;-0.017;-55.03;0.088;
1;34;1.000;0.500;-3.600;;0.079;-0.011;66.90;0.004;-0.102;-38.05;0.006;-0.021;-66.95;0.051;
1;35;1.500;0.500;-3.600;;0.245;0.045;4.99;-0.041;-0.276;-80.99;0.005;-0.019;-62.46;0.033;
1;36;2.000;0.500;-3.600;;0.358;0.069;4.87;-0.072;-0.383;-83.08;0.001;-0.015;-61.59;0.028;
1;37;2.500;0.500;-3.600;;0.353;0.128;-6.34;-0.124;-0.378;87.34;0.006;-0.016;-71.78;0.013;
1;38;3.000;0.500;-3.600;;0.160;-0.115;-58.18;0.083;-0.172;34.63;-0.001;-0.020;-62.92;0.124;
1;39;3.500;0.500;-3.600;;0.119;-0.001;63.79;-0.015;-0.153;-36.15;0.000;-0.024;-65.15;0.076;
1;40;4.000;0.500;-3.600;;0.317;0.080;18.24;-0.081;-0.368;-72.13;0.000;-0.026;-73.82;0.046;
1;41;4.500;0.500;-3.600;;0.435;0.107;5.13;-0.108;-0.479;-84.20;0.000;-0.022;-79.25;0.023;
1;42;5.000;0.500;-3.600;;0.472;0.116;-3.32;-0.118;-0.511;87.91;0.000;-0.020;-81.24;0.016;
1;43;5.500;0.500;-3.600;;0.429;0.122;-12.01;-0.125;-0.467;80.14;0.000;-0.021;-83.23;0.020;
1;44;6.000;0.500;-3.600;;0.162;0.045;-52.81;-0.075;-0.185;41.12;-0.005;-0.022;-79.74;0.118;
1;45;6.500;0.500;-3.600;;0.268;0.098;19.86;-0.103;-0.317;-72.12;-0.002;-0.025;-79.63;0.055;
1;46;7.000;0.500;-3.600;;0.443;0.105;8.46;-0.107;-0.496;-81.94;-0.001;-0.026;-84.62;0.031;
1;47;7.500;0.500;-3.600;;0.500;0.115;1.26;-0.117;-0.551;-88.80;-0.001;-0.026;-89.35;0.017;
1;48;8.000;0.500;-3.600;;0.468;0.112;-5.58;-0.115;-0.520;84.63;-0.001;-0.026;86.14;0.025;
1;49;8.500;0.500;-3.600;;0.334;0.108;-14.50;-0.112;-0.382;76.51;-0.002;-0.024;81.62;0.044;
1;50;9.000;0.500;-3.600;;0.137;0.081;56.76;-0.112;-0.160;-48.26;-0.005;-0.022;82.09;0.118;
1;51;9.500;0.500;-3.600;;0.389;0.111;14.77;-0.115;-0.427;-77.61;0.000;-0.021;85.48;0.031;
1;52;10.000;0.500;-3.600;;0.470;0.113;5.79;-0.115;-0.510;-85.45;0.000;-0.021;83.55;0.018;
1;53;10.500;0.500;-3.600;;0.458;0.112;-1.78;-0.113;-0.502;87.44;0.000;-0.022;81.15;0.020;
1;54;11.000;0.500;-3.600;;0.363;0.096;-11.00;-0.097;-0.412;78.46;-0.001;-0.025;75.45;0.039;
1;55;11.500;0.500;-3.600;;0.157;0.066;-39.30;-0.070;-0.201;55.80;-0.001;-0.023;66.31;0.066;
1;56;12.000;0.500;-3.600;;0.157;-0.061;59.01;0.031;-0.165;-33.67;-0.001;-0.019;62.27;0.121;
1;57;12.500;0.500;-3.600;;0.370;0.109;17.39;-0.114;-0.383;-76.73;0.005;-0.014;66.29;0.009;
1;58;13.000;0.500;-3.600;;0.359;0.109;5.13;-0.110;-0.375;-88.22;0.004;-0.013;61.96;0.017;
1;59;13.500;0.500;-3.600;;0.283;0.096;-10.11;-0.093;-0.311;77.42;0.003;-0.015;63.94;0.030;
1;60;14.000;0.500;-3.600;;0.155;0.035;-49.27;-0.034;-0.191;46.31;0.003;-0.020;61.43;0.055;
1;61;14.500;0.500;-3.600;;0.065;-0.208;-84.95;0.193;-0.081;10.16;0.005;-0.020;52.49;0.088;
1;62;15.000;0.500;-3.600;;-0.005;-0.633;75.20;0.625;0.009;-13.05;0.009;-0.011;39.47;0.140;
1;63;0.000;1.000;-3.600;;0.165;-0.270;-77.62;0.277;-0.160;12.04;0.004;0.001;-18.62;0.064;
1;64;0.500;1.000;-3.600;;0.172;-0.152;-86.79;0.157;-0.184;1.52;0.005;-0.008;-22.35;0.063;
1;65;1.000;1.000;-3.600;;0.153;0.004;85.98;-0.003;-0.151;-8.20;0.006;-0.005;-50.60;0.050;
1;66;1.500;1.000;-3.600;;0.282;0.023;1.98;-0.023;-0.317;-85.78;0.002;-0.019;-71.10;0.062;
1;67;2.000;1.000;-3.600;;0.378;0.080;36.68;-0.084;-0.432;-55.50;0.000;-0.028;-67.52;0.054;
1;68;2.500;1.000;-3.600;;0.250;0.233;67.71;-0.231;-0.280;-61.57;0.005;-0.019;-72.10;0.008;
1;69;3.000;1.000;-3.600;;0.233;0.094;-78.79;-0.122;-0.240;10.70;-0.003;-0.014;-76.99;0.065;
1;70;3.500;1.000;-3.600;;0.217;0.134;74.11;-0.155;-0.240;-24.98;-0.005;-0.018;-64.14;0.053;
1;71;4.000;1.000;-3.600;;0.315;0.188;26.75;-0.193;-0.354;-65.00;-0.002;-0.019;-71.46;0.037;
1;72;4.500;1.000;-3.600;;0.404;0.215;7.75;-0.218;-0.446;-81.42;-0.001;-0.021;-77.36;0.023;
1;73;5.000;1.000;-3.600;;0.432;0.227;-3.56;-0.229;-0.474;88.33;-0.001;-0.021;-82.02;0.015;
1;74;5.500;1.000;-3.600;;0.397;0.238;-11.80;-0.242;-0.437;81.28;-0.001;-0.021;-86.42;0.021;
1;75;6.000;1.000;-3.600;;0.283;0.229;-24.67;-0.246;-0.318;71.86;-0.004;-0.021;-88.36;0.061;
1;76;6.500;1.000;-3.600;;0.325;0.226;16.76;-0.236;-0.369;-75.98;-0.004;-0.022;-83.53;0.041;
1;77;7.000;1.000;-3.600;;0.424;0.221;10.92;-0.227;-0.471;-80.26;-0.003;-0.023;-86.01;0.026;
1;78;7.500;1.000;-3.600;;0.469;0.226;1.99;-0.230;-0.517;-88.19;-0.002;-0.024;-89.17;0.017;
1;79;8.000;1.000;-3.600;;0.443;0.227;-6.49;-0.232;-0.489;84.20;-0.002;-0.024;87.70;0.022;
1;80;8.500;1.000;-3.600;;0.359;0.235;-11.24;-0.243;-0.404;80.23;-0.004;-0.023;85.19;0.035;
1;81;9.000;1.000;-3.600;;0.285;0.240;11.83;-0.255;-0.323;-81.06;-0.004;-0.022;89.18;0.061;
1;82;9.500;1.000;-3.600;;0.383;0.234;14.58;-0.239;-0.424;-78.88;-0.001;-0.022;87.95;0.027;
1;83;10.000;1.000;-3.600;;0.436;0.225;7.58;-0.229;-0.477;-84.57;-0.001;-0.021;84.15;0.017;
1;84;10.500;1.000;-3.600;;0.427;0.222;-2.10;-0.225;-0.469;86.67;-0.001;-0.021;80.11;0.019;
1;85;11.000;1.000;-3.600;;0.351;0.210;-14.67;-0.215;-0.389;75.28;-0.002;-0.019;75.08;0.032;
1;86;11.500;1.000;-3.600;;0.231;0.200;-51.48;-0.214;-0.262;52.10;-0.005;-0.018;69.11;0.047;
1;87;12.000;1.000;-3.600;;0.240;0.157;76.92;-0.185;-0.248;-19.78;-0.004;-0.015;83.06;0.062;
1;88;12.500;1.000;-3.600;;0.319;0.213;26.88;-0.220;-0.336;-71.41;0.002;-0.014;76.75;0.014;
1;89;13.000;1.000;-3.600;;0.316;0.212;9.42;-0.214;-0.336;-87.55;0.003;-0.014;67.69;0.015;
1;90;13.500;1.000;-3.600;;0.256;0.197;-24.24;-0.192;-0.282;63.45;0.003;-0.013;59.13;0.028;
1;91;14.000;1.000;-3.600;;0.213;0.086;-69.02;-0.086;-0.232;25.91;0.003;-0.012;49.43;0.043;
1;92;14.500;1.000;-3.600;;0.183;-0.072;-87.78;0.069;-0.196;4.73;0.002;-0.010;36.88;0.059;
1;93;15.000;1.000;-3.600;;0.172;-0.211;78.42;0.216;-0.165;-11.29;0.004;0.002;44.19;0.066;
1;94;0.000;1.500;-3.600;;0.254;-0.145;-83.45;0.148;-0.247;5.80;0.005;0.000;-49.45;0.042;
1;95;0.500;1.500;-3.600;;0.292;-0.071;-87.84;0.073;-0.298;0.89;0.003;-0.006;-29.36;0.034;
1;96;1.000;1.500;-3.600;;0.349;0.001;88.36;0.002;-0.360;-2.68;0.003;-0.007;-23.27;0.033;
1;98;2.000;1.500;-3.600;;0.498;-0.012;89.06;0.020;-0.487;-1.42;0.007;0.002;-58.04;0.041;
1;99;2.500;1.500;-3.600;;0.344;0.186;-87.55;-0.196;-0.343;0.69;0.001;-0.006;-67.73;0.012;
1;100;3.000;1.500;-3.600;;0.301;0.155;-83.86;-0.179;-0.307;4.82;-0.003;-0.013;-76.01;0.033;
1;101;3.500;1.500;-3.600;;0.303;0.206;83.39;-0.231;-0.317;-10.94;-0.005;-0.014;-74.17;0.028;
1;102;4.000;1.500;-3.600;;0.327;0.278;44.39;-0.291;-0.356;-55.54;-0.004;-0.017;-76.73;0.024;
1;103;4.500;1.500;-3.600;;0.387;0.297;10.17;-0.303;-0.424;-80.28;-0.003;-0.019;-81.57;0.015;
1;104;5.000;1.500;-3.600;;0.414;0.306;-0.71;-0.310;-0.454;-89.26;-0.002;-0.020;-84.94;0.009;
1;105;5.500;1.500;-3.600;;0.396;0.314;-4.87;-0.320;-0.437;87.32;-0.002;-0.021;-87.90;0.011;
1;106;6.000;1.500;-3.600;;0.337;0.308;-13.27;-0.319;-0.376;84.65;-0.004;-0.021;-88.73;0.031;
1;107;6.500;1.500;-3.600;;0.365;0.316;12.20;-0.325;-0.408;-81.77;-0.004;-0.022;-87.25;0.020;
1;108;7.000;1.500;-3.600;;0.422;0.312;9.27;-0.319;-0.467;-82.51;-0.004;-0.023;-87.75;0.016;
1;109;7.500;1.500;-3.600;;0.452;0.311;2.61;-0.317;-0.498;-87.80;-0.003;-0.023;-89.29;0.010;
1;110;8.000;1.500;-3.600;;0.436;0.314;-3.30;-0.321;-0.481;87.29;-0.003;-0.023;89.16;0.013;
1;111;8.500;1.500;-3.600;;0.387;0.320;-3.43;-0.328;-0.432;87.22;-0.004;-0.022;88.43;0.017;
1;112;9.000;1.500;-3.600;;0.346;0.312;8.95;-0.322;-0.388;-85.05;-0.004;-0.022;89.67;0.031;
1;113;9.500;1.500;-3.600;;0.395;0.316;9.93;-0.322;-0.437;-83.57;-0.002;-0.021;89.08;0.014;
1;114;10.000;1.500;-3.600;;0.423;0.309;6.43;-0.314;-0.463;-85.97;-0.002;-0.021;86.69;0.010;
1;115;10.500;1.500;-3.600;;0.410;0.305;-1.25;-0.310;-0.448;87.65;-0.003;-0.019;84.17;0.013;
1;116;11.000;1.500;-3.600;;0.354;0.301;-15.15;-0.310;-0.389;76.93;-0.004;-0.018;81.04;0.020;
1;117;11.500;1.500;-3.600;;0.306;0.269;-86.06;-0.298;-0.318;17.60;-0.005;-0.016;80.93;0.024;
1;118;12.000;1.500;-3.600;;0.299;0.231;77.31;-0.259;-0.307;-20.81;-0.004;-0.014;85.71;0.032;
1;119;12.500;1.500;-3.600;;0.314;0.278;51.31;-0.293;-0.326;-59.61;-0.001;-0.013;82.25;0.008;
1;120;13.000;1.500;-3.600;;0.298;0.280;48.27;-0.291;-0.310;-80.22;0.000;-0.012;74.36;0.011;
1;121;13.500;1.500;-3.600;;0.282;0.232;-78.81;-0.242;-0.291;21.48;0.000;-0.009;62.34;0.021;
1;122;14.000;1.500;-3.600;;0.282;0.121;-83.44;-0.126;-0.292;9.02;0.000;-0.007;44.50;0.029;
1;123;14.500;1.500;-3.600;;0.277;0.002;-89.76;-0.004;-0.282;1.15;0.001;-0.004;34.42;0.032;
1;124;15.000;1.500;-3.600;;0.255;-0.081;84.09;0.085;-0.247;-5.91;0.004;0.002;83.86;0.038;
1;125;0.000;2.000;-3.600;;0.276;-0.092;-87.40;0.093;-0.269;2.17;0.004;0.000;-67.48;0.012;
1;126;0.500;2.000;-3.600;;0.320;-0.048;85.95;0.042;-0.325;-4.73;-0.001;-0.005;-52.17;0.029;
1;127;1.000;2.000;-3.600;;0.330;-0.001;71.07;-0.015;-0.355;-19.96;-0.006;-0.014;-46.31;0.071;
1;128;1.500;2.000;-3.600;;0.349;-0.007;8.38;0.005;-0.374;-82.21;0.000;-0.013;89.33;0.070;
1;129;2.000;2.000;-3.600;;0.427;0.094;-49.36;-0.096;-0.436;43.03;0.005;-0.010;80.12;0.018;
1;130;2.500;2.000;-3.600;;0.343;0.203;-72.38;-0.216;-0.349;21.32;0.000;-0.009;74.84;0.010;
1;131;3.000;2.000;-3.600;;0.320;0.180;88.41;-0.201;-0.326;-1.46;-0.003;-0.010;87.21;0.011;
1;132;3.500;2.000;-3.600;;0.331;0.228;87.22;-0.255;-0.341;-3.23;-0.005;-0.013;89.69;0.019;
1;133;4.000;2.000;-3.600;;0.333;0.310;73.68;-0.335;-0.349;-48.14;-0.005;-0.016;-89.48;0.016;
1;134;4.500;2.000;-3.600;;0.381;0.329;6.70;-0.336;-0.416;-85.46;-0.003;-0.018;-89.35;0.010;
1;135;5.000;2.000;-3.600;;0.409;0.332;4.49;-0.337;-0.449;-86.71;-0.002;-0.020;-89.41;0.003;
1;136;5.500;2.000;-3.600;;0.398;0.338;5.48;-0.344;-0.439;-86.38;-0.003;-0.021;-89.49;0.004;
1;137;6.000;2.000;-3.600;;0.349;0.332;16.26;-0.341;-0.391;-85.06;-0.004;-0.021;-89.51;0.012;
1;138;6.500;2.000;-3.600;;0.377;0.345;7.61;-0.353;-0.420;-86.14;-0.004;-0.022;-89.56;0.011;
1;139;7.000;2.000;-3.600;;0.422;0.344;3.34;-0.352;-0.467;-87.58;-0.004;-0.022;-89.52;0.007;
1;140;7.500;2.000;-3.600;;0.448;0.341;2.43;-0.348;-0.493;-88.08;-0.004;-0.023;-89.51;0.001;
1;141;8.000;2.000;-3.600;;0.436;0.343;2.54;-0.351;-0.480;-88.06;-0.004;-0.022;-89.54;0.005;
1;142;8.500;2.000;-3.600;;0.397;0.345;3.92;-0.353;-0.441;-87.53;-0.004;-0.022;-89.62;0.009;
1;143;9.000;2.000;-3.600;;0.359;0.336;6.16;-0.344;-0.402;-87.41;-0.004;-0.022;-89.73;0.012;
1;144;9.500;2.000;-3.600;;0.399;0.343;3.06;-0.348;-0.442;-88.08;-0.003;-0.021;-89.83;0.006;
1;145;10.000;2.000;-3.600;;0.419;0.338;2.12;-0.343;-0.460;-88.47;-0.002;-0.020;-89.80;0.000;
1;146;10.500;2.000;-3.600;;0.405;0.334;2.30;-0.341;-0.443;-88.33;-0.003;-0.019;-89.76;0.007;
1;147;11.000;2.000;-3.600;;0.355;0.334;7.28;-0.343;-0.389;-86.57;-0.005;-0.017;-89.74;0.013;
1;148;11.500;2.000;-3.600;;0.333;0.286;87.23;-0.316;-0.343;-5.08;-0.005;-0.015;-89.84;0.016;
1;149;12.000;2.000;-3.600;;0.321;0.246;87.95;-0.274;-0.328;-2.95;-0.004;-0.014;-89.99;0.012;
1;150;12.500;2.000;-3.600;;0.325;0.289;86.30;-0.314;-0.328;-9.20;-0.002;-0.013;89.87;0.000;
1;151;13.000;2.000;-3.600;;0.311;0.286;87.36;-0.306;-0.314;-8.55;-0.001;-0.010;89.86;0.008;
1;152;13.500;2.000;-3.600;;0.308;0.228;88.76;-0.242;-0.314;-1.35;-0.003;-0.007;89.66;0.017;
1;153;14.000;2.000;-3.600;;0.310;0.130;89.55;-0.137;-0.317;-0.42;-0.003;-0.004;13.37;0.022;
1;154;14.500;2.000;-3.600;;0.305;0.025;89.78;-0.027;-0.308;-0.19;-0.001;-0.001;5.85;0.024;
1;155;15.000;2.000;-3.600;;0.278;-0.051;89.86;0.054;-0.268;-0.12;0.005;0.001;88.93;0.023;
1;156;0.000;2.500;-3.600;;0.248;-0.118;82.04;0.121;-0.240;-8.06;0.004;0.001;89.32;0.035;
1;157;0.500;2.500;-3.600;;0.268;-0.058;85.16;0.054;-0.275;-4.20;-0.001;-0.005;32.84;0.029;
1;158;1.000;2.500;-3.600;;0.229;0.068;83.76;-0.080;-0.241;-4.78;-0.004;-0.008;38.93;0.015;
1;159;1.500;2.500;-3.600;;0.236;0.172;2.89;-0.175;-0.253;89.11;-0.001;-0.009;74.61;0.023;
1;160;2.000;2.500;-3.600;;0.290;0.211;-27.05;-0.210;-0.312;68.25;0.002;-0.012;84.09;0.022;
1;161;2.500;2.500;-3.600;;0.288;0.246;-66.20;-0.259;-0.299;45.77;0.002;-0.013;80.98;0.004;
1;162;3.000;2.500;-3.600;;0.293;0.177;82.21;-0.203;-0.299;-6.33;-0.003;-0.013;78.27;0.033;
1;163;3.500;2.500;-3.600;;0.303;0.212;-89.21;-0.240;-0.314;4.38;-0.005;-0.015;76.29;0.026;
1;164;4.000;2.500;-3.600;;0.317;0.292;-42.94;-0.304;-0.346;62.79;-0.004;-0.017;78.36;0.023;
1;165;4.500;2.500;-3.600;;0.384;0.301;-1.77;-0.307;-0.421;86.77;-0.003;-0.019;82.91;0.015;
1;166;5.000;2.500;-3.600;;0.414;0.305;7.25;-0.310;-0.453;-85.51;-0.002;-0.020;86.09;0.010;
1;167;5.500;2.500;-3.600;;0.397;0.311;12.56;-0.318;-0.438;-81.54;-0.002;-0.021;88.86;0.011;
1;168;6.000;2.500;-3.600;;0.341;0.304;21.70;-0.317;-0.379;-77.65;-0.004;-0.021;89.62;0.030;
1;169;6.500;2.500;-3.600;;0.363;0.319;-1.95;-0.328;-0.407;88.08;-0.004;-0.022;88.11;0.020;
1;170;7.000;2.500;-3.600;;0.420;0.315;-4.60;-0.322;-0.465;86.27;-0.004;-0.023;88.69;0.015;
1;171;7.500;2.500;-3.600;;0.451;0.311;1.16;-0.317;-0.497;-89.05;-0.003;-0.023;-89.77;0.010;
1;172;8.000;2.500;-3.600;;0.436;0.313;7.20;-0.320;-0.481;-84.10;-0.004;-0.023;-88.27;0.013;
1;173;8.500;2.500;-3.600;;0.387;0.318;9.40;-0.327;-0.432;-83.03;-0.004;-0.022;-87.70;0.018;
1;174;9.000;2.500;-3.600;;0.344;0.314;-3.26;-0.324;-0.386;89.25;-0.004;-0.022;-89.19;0.030;
1;175;9.500;2.500;-3.600;;0.393;0.318;-5.72;-0.323;-0.436;86.62;-0.002;-0.022;-88.78;0.013;
1;176;10.000;2.500;-3.600;;0.422;0.310;-3.39;-0.315;-0.463;88.40;-0.002;-0.021;-86.33;0.010;
1;177;10.500;2.500;-3.600;;0.410;0.304;4.51;-0.310;-0.449;-85.07;-0.003;-0.020;-83.77;0.013;
1;178;11.000;2.500;-3.600;;0.356;0.298;19.99;-0.307;-0.391;-73.39;-0.004;-0.018;-80.63;0.020;
1;179;11.500;2.500;-3.600;;0.307;0.266;79.15;-0.294;-0.322;-25.49;-0.005;-0.016;-80.66;0.025;
1;180;12.000;2.500;-3.600;;0.298;0.232;-80.88;-0.260;-0.306;11.77;-0.004;-0.014;-85.77;0.031;
1;181;12.500;2.500;-3.600;;0.311;0.281;-53.56;-0.296;-0.323;62.53;-0.001;-0.013;-82.55;0.008;
1;182;13.000;2.500;-3.600;;0.295;0.283;-55.46;-0.292;-0.309;-88.02;0.000;-0.012;-74.65;0.011;
1;183;13.500;2.500;-3.600;;0.283;0.230;75.48;-0.239;-0.293;-24.07;0.000;-0.009;-62.64;0.021;
1;184;14.000;2.500;-3.600;;0.283;0.119;82.51;-0.125;-0.293;-9.84;0.000;-0.007;-44.42;0.029;
1;185;14.500;2.500;-3.600;;0.278;0.002;89.30;-0.003;-0.283;-1.55;0.001;-0.004;-33.54;0.032;
1;186;15.000;2.500;-3.600;;0.256;-0.081;-84.37;0.086;-0.247;5.66;0.004;0.002;-87.01;0.037;
1;187;0.000;3.000;-3.600;;0.170;-0.259;75.99;0.263;-0.163;-13.66;0.004;0.001;44.23;0.060;
1;188;0.500;3.000;-3.600;;0.167;-0.126;87.69;0.121;-0.179;-0.12;0.002;-0.010;35.59;0.059;
1;189;1.000;3.000;-3.600;;0.177;0.043;-76.79;-0.049;-0.192;17.83;0.001;-0.011;48.62;0.042;
1;190;1.500;3.000;-3.600;;0.217;0.163;-24.63;-0.161;-0.241;64.76;0.001;-0.012;63.48;0.027;
1;191;2.000;3.000;-3.600;;0.292;0.182;4.94;-0.181;-0.315;-89.80;0.003;-0.013;73.24;0.014;
1;192;2.500;3.000;-3.600;;0.302;0.202;21.64;-0.204;-0.323;-76.43;0.004;-0.015;78.80;0.006;
1;193;3.000;3.000;-3.600;;0.231;0.122;70.03;-0.148;-0.241;-36.15;-0.003;-0.015;80.30;0.062;
1;194;3.500;3.000;-3.600;;0.214;0.149;-80.34;-0.174;-0.234;21.37;-0.005;-0.018;66.36;0.051;
1;195;4.000;3.000;-3.600;;0.311;0.199;-22.13;-0.204;-0.349;69.06;-0.002;-0.019;72.98;0.036;
1;196;4.500;3.000;-3.600;;0.402;0.219;-3.63;-0.222;-0.443;85.03;-0.001;-0.021;78.60;0.022;
1;197;5.000;3.000;-3.600;;0.432;0.225;7.24;-0.229;-0.473;-85.03;-0.001;-0.021;83.09;0.015;
1;198;5.500;3.000;-3.600;;0.397;0.233;15.88;-0.238;-0.437;-77.67;-0.001;-0.022;87.28;0.022;
1;199;6.000;3.000;-3.600;;0.285;0.227;30.54;-0.244;-0.320;-68.26;-0.005;-0.022;88.96;0.060;
1;200;6.500;3.000;-3.600;;0.322;0.232;-13.02;-0.241;-0.366;79.12;-0.004;-0.023;84.38;0.040;
1;201;7.000;3.000;-3.600;;0.421;0.225;-8.38;-0.230;-0.468;82.55;-0.003;-0.024;86.89;0.026;
1;202;7.500;3.000;-3.600;;0.467;0.227;0.31;-0.231;-0.516;-89.73;-0.002;-0.024;-89.99;0.017;
1;203;8.000;3.000;-3.600;;0.442;0.225;8.88;-0.230;-0.489;-82.06;-0.002;-0.024;-86.91;0.023;
1;204;8.500;3.000;-3.600;;0.359;0.231;14.55;-0.240;-0.404;-77.48;-0.004;-0.023;-84.50;0.036;
1;205;9.000;3.000;-3.600;;0.283;0.241;-9.37;-0.257;-0.321;83.56;-0.005;-0.022;-88.91;0.060;
1;206;9.500;3.000;-3.600;;0.381;0.238;-12.68;-0.242;-0.423;80.60;-0.001;-0.022;-87.73;0.027;
1;207;10.000;3.000;-3.600;;0.435;0.227;-5.93;-0.231;-0.477;86.07;-0.001;-0.022;-83.87;0.017;
1;208;10.500;3.000;-3.600;;0.427;0.221;3.88;-0.224;-0.469;-85.10;-0.001;-0.021;-79.84;0.019;
1;209;11.000;3.000;-3.600;;0.352;0.207;16.94;-0.212;-0.391;-73.41;-0.002;-0.020;-74.88;0.032;
1;210;11.500;3.000;-3.600;;0.235;0.193;53.26;-0.208;-0.266;-48.43;-0.005;-0.018;-69.00;0.048;
1;211;12.000;3.000;-3.600;;0.238;0.157;-80.22;-0.186;-0.247;1.64;-0.004;-0.015;-83.34;0.062;
1;212;12.500;3.000;-3.600;;0.316;0.217;-25.96;-0.223;-0.335;72.73;0.002;-0.015;-77.10;0.014;
1;213;13.000;3.000;-3.600;;0.314;0.213;-7.42;-0.215;-0.337;89.39;0.002;-0.014;-67.99;0.015;
1;214;13.500;3.000;-3.600;;0.258;0.194;26.74;-0.189;-0.284;-61.95;0.003;-0.013;-59.35;0.028;
1;215;14.000;3.000;-3.600;;0.215;0.082;68.40;-0.082;-0.234;-26.29;0.003;-0.012;-49.47;0.043;
1;216;14.500;3.000;-3.600;;0.184;-0.074;87.28;0.072;-0.197;-5.16;0.002;-0.010;-36.50;0.059;
1;217;15.000;3.000;-3.600;;0.172;-0.212;-78.68;0.217;-0.165;11.06;0.004;0.002;-43.38;0.066;
1;218;0.000;3.500;-3.600;;-0.006;-0.720;74.01;0.712;0.011;-14.50;0.009;-0.011;39.19;0.135;
1;219;0.500;3.500;-3.600;;0.051;-0.273;-87.59;0.257;-0.063;6.46;0.004;-0.018;51.66;0.091;
1;220;1.000;3.500;-3.600;;0.123;0.001;-59.74;-0.006;-0.151;37.44;0.002;-0.018;61.44;0.057;
1;221;1.500;3.500;-3.600;;0.244;0.083;-13.51;-0.080;-0.270;74.85;0.002;-0.014;66.14;0.032;
1;222;2.000;3.500;-3.600;;0.338;0.100;4.49;-0.100;-0.355;-88.48;0.004;-0.012;64.98;0.018;
1;223;2.500;3.500;-3.600;;0.380;0.107;16.69;-0.111;-0.395;-77.15;0.005;-0.014;68.20;0.008;
1;224;3.000;3.500;-3.600;;0.177;-0.114;57.10;0.084;-0.187;-34.94;-0.001;-0.019;62.85;0.121;
1;225;3.500;3.500;-3.600;;0.116;0.018;-64.36;-0.034;-0.149;37.44;-0.001;-0.024;65.88;0.074;
1;226;4.000;3.500;-3.600;;0.316;0.089;-15.12;-0.089;-0.367;74.83;0.000;-0.025;74.62;0.045;
1;227;4.500;3.500;-3.600;;0.434;0.110;-2.99;-0.112;-0.477;86.19;0.000;-0.022;80.12;0.023;
1;228;5.000;3.500;-3.600;;0.471;0.114;5.28;-0.116;-0.510;-86.03;0.000;-0.021;82.32;0.016;
1;229;5.500;3.500;-3.600;;0.427;0.115;14.40;-0.119;-0.464;-77.85;0.000;-0.021;84.24;0.021;
1;230;6.000;3.500;-3.600;;0.171;0.033;51.77;-0.065;-0.193;-43.39;-0.005;-0.022;80.69;0.117;
1;231;6.500;3.500;-3.600;;0.271;0.102;-18.01;-0.106;-0.320;73.80;-0.002;-0.025;80.54;0.054;
1;232;7.000;3.500;-3.600;;0.441;0.109;-7.04;-0.111;-0.494;83.28;-0.001;-0.026;85.33;0.031;
1;233;7.500;3.500;-3.600;;0.498;0.115;0.01;-0.117;-0.550;-90.00;-0.001;-0.026;89.93;0.017;
1;234;8.000;3.500;-3.600;;0.466;0.110;6.98;-0.112;-0.519;-83.33;-0.001;-0.026;-85.54;0.025;
1;235;8.500;3.500;-3.600;;0.332;0.102;16.82;-0.106;-0.381;-74.46;-0.002;-0.025;-80.98;0.045;
1;236;9.000;3.500;-3.600;;0.136;0.079;-57.77;-0.111;-0.160;46.94;-0.005;-0.023;-81.64;0.117;
1;237;9.500;3.500;-3.600;;0.388;0.115;-13.81;-0.119;-0.427;78.61;0.000;-0.021;-85.14;0.030;
1;238;10.000;3.500;-3.600;;0.469;0.115;-4.94;-0.117;-0.510;86.29;0.000;-0.021;-83.23;0.018;
1;239;10.500;3.500;-3.600;;0.458;0.112;2.72;-0.113;-0.503;-86.57;0.000;-0.023;-81.00;0.020;
1;240;11.000;3.500;-3.600;;0.362;0.093;12.33;-0.094;-0.413;-77.32;-0.001;-0.026;-75.39;0.039;
1;241;11.500;3.500;-3.600;;0.158;0.060;42.10;-0.065;-0.202;-53.65;-0.001;-0.024;-66.31;0.067;
1;242;12.000;3.500;-3.600;;0.156;-0.062;-59.46;0.032;-0.165;33.35;-0.001;-0.019;-62.45;0.121;
1;243;12.500;3.500;-3.600;;0.369;0.111;-16.90;-0.116;-0.383;77.34;0.005;-0.015;-66.68;0.009;
1;244;13.000;3.500;-3.600;;0.358;0.110;-4.47;-0.111;-0.376;88.90;0.004;-0.013;-62.27;0.017;
1;245;13.500;3.500;-3.600;;0.283;0.095;11.15;-0.092;-0.312;-76.54;0.003;-0.015;-64.20;0.030;
1;246;14.000;3.500;-3.600;;0.158;0.031;49.78;-0.029;-0.194;-45.80;0.003;-0.020;-61.54;0.055;
1;247;14.500;3.500;-3.600;;0.066;-0.212;84.61;0.198;-0.082;-10.47;0.005;-0.020;-52.40;0.088;
1;248;15.000;3.500;-3.600;;-0.005;-0.638;-75.43;0.630;0.009;12.80;0.009;-0.011;-39.05;0.140;
1;249;0.000;4.000;-3.600;;-0.194;-1.632;74.10;1.456;0.158;-15.23;-0.017;-0.089;68.05;0.453;
1;250;0.500;4.000;-3.600;;0.034;-0.541;-88.13;0.454;-0.041;3.92;-0.001;-0.046;80.04;0.234;
1;251;1.000;4.000;-3.600;;0.102;-0.029;-46.60;0.009;-0.128;52.83;0.000;-0.022;89.32;0.117;
1;252;1.500;4.000;-3.600;;0.262;0.013;-9.08;-0.012;-0.284;81.72;0.000;-0.012;-89.88;0.066;
1;253;2.000;4.000;-3.600;;0.383;0.019;0.65;-0.018;-0.390;-89.37;0.000;-0.003;89.62;0.023;
1;254;2.500;4.000;-3.600;;0.479;0.010;8.80;-0.006;-0.454;-82.06;0.014;0.001;25.02;0.049;
1;255;3.000;4.000;-3.600;;0.070;-0.642;48.77;0.562;-0.049;-40.95;0.011;-0.040;47.18;0.314;
1;256;3.500;4.000;-3.600;;0.067;-0.182;-74.37;0.110;-0.089;25.40;-0.001;-0.046;81.95;0.212;
1;257;4.000;4.000;-3.600;;0.337;0.008;-12.03;-0.011;-0.391;79.72;0.000;-0.028;-89.86;0.097;
1;258;4.500;4.000;-3.600;;0.465;0.016;-2.71;-0.015;-0.507;87.53;0.001;-0.021;-89.97;0.039;
1;259;5.000;4.000;-3.600;;0.513;0.021;2.85;-0.020;-0.546;-87.36;0.000;-0.016;89.58;0.025;
1;260;5.500;4.000;-3.600;;0.452;0.011;10.51;-0.009;-0.473;-80.39;0.002;-0.011;84.18;0.097;
1;261;6.000;4.000;-3.600;;-0.070;-0.386;52.11;0.330;0.055;-38.30;-0.006;-0.030;72.42;0.314;
1;262;6.500;4.000;-3.600;;0.186;-0.003;-25.08;-0.003;-0.248;70.16;0.000;-0.034;85.12;0.167;
1;263;7.000;4.000;-3.600;;0.473;0.018;-5.62;-0.018;-0.527;85.00;0.000;-0.027;-89.75;0.064;
1;264;7.500;4.000;-3.600;;0.532;0.017;-0.09;-0.015;-0.582;89.91;0.001;-0.025;-90.00;0.013;
1;265;8.000;4.000;-3.600;;0.499;0.019;5.17;-0.019;-0.552;-85.37;0.000;-0.027;89.74;0.057;
1;266;8.500;4.000;-3.600;;0.262;0.010;18.20;-0.012;-0.326;-74.59;0.000;-0.034;-85.18;0.152;
1;267;9.000;4.000;-3.600;;-0.130;-0.318;-65.71;0.259;0.116;26.51;-0.006;-0.030;-76.02;0.313;
1;268;9.500;4.000;-3.600;;0.385;0.012;-11.76;-0.010;-0.409;79.41;0.002;-0.013;-85.13;0.113;
1;269;10.000;4.000;-3.600;;0.510;0.021;-3.06;-0.020;-0.545;87.17;0.000;-0.017;-89.62;0.032;
1;270;10.500;4.000;-3.600;;0.490;0.016;2.28;-0.015;-0.532;-87.92;0.001;-0.021;89.93;0.032;
1;271;11.000;4.000;-3.600;;0.384;0.012;9.77;-0.014;-0.439;-81.53;0.000;-0.028;89.77;0.089;
1;272;11.500;4.000;-3.600;;0.078;-0.090;60.51;0.043;-0.126;-45.08;-0.001;-0.046;-81.78;0.198;
1;273;12.000;4.000;-3.600;;-0.006;-0.545;-49.70;0.466;0.029;39.65;0.012;-0.040;-46.76;0.314;
1;274;12.500;4.000;-3.600;;0.441;0.012;-9.27;-0.008;-0.413;81.69;0.015;0.001;-24.30;0.060;
1;275;13.000;4.000;-3.600;;0.404;0.022;-0.90;-0.021;-0.411;89.17;0.001;-0.003;-87.42;0.017;
1;276;13.500;4.000;-3.600;;0.303;0.014;7.62;-0.014;-0.329;-83.01;0.000;-0.014;-89.51;0.062;
1;277;14.000;4.000;-3.600;;0.142;-0.012;35.87;-0.002;-0.180;-61.97;0.000;-0.026;-89.27;0.117;
1;278;14.500;4.000;-3.600;;0.041;-0.463;86.62;0.366;-0.051;-6.41;-0.002;-0.052;-80.28;0.231;
1;279;15.000;4.000;-3.600;;-0.218;-1.505;-74.58;1.309;0.178;14.54;-0.019;-0.099;-68.31;0.446;
Extremes;16;7.500;0.000;-3.600;σ_1,+;0.533;0.016;0.82;-0.015;-0.583;-89.25;0.001;-0.025;89.99;0.016;
1;279;15.000;4.000;-3.600;σ_1,+;-0.218;-1.505;-74.58;1.309;0.178;14.54;-0.019;-0.099;-68.31;0.446;
1;142;8.500;2.000;-3.600;σ_2,+;0.397;0.345;3.92;-0.353;-0.441;-87.53;-0.004;-0.022;-89.62;0.009;
1;1;0.000;0.000;-3.600;σ_2,+;-0.190;-1.635;-73.49;1.451;0.155;15.99;-0.017;-0.093;-68.98;0.437;
1;249;0.000;4.000;-3.600;σ_1,-;-0.194;-1.632;74.10;1.456;0.158;-15.23;-0.017;-0.089;68.05;0.453;
1;142;8.500;2.000;-3.600;σ_1,-;0.397;0.345;3.92;-0.353;-0.441;-87.53;-0.004;-0.022;-89.62;0.009;
1;279;15.000;4.000;-3.600;σ_2,-;-0.218;-1.505;-74.58;1.309;0.178;14.54;-0.019;-0.099;-68.31;0.446;
1;16;7.500;0.000;-3.600;σ_2,-;0.533;0.016;0.82;-0.015;-0.583;-89.25;0.001;-0.025;89.99;0.016;
1;6;2.500;0.000;-3.600;σ_1,m;0.486;0.016;-5.38;-0.010;-0.455;85.30;0.016;0.003;-16.58;0.036;
1;279;15.000;4.000;-3.600;σ_1,m;-0.218;-1.505;-74.58;1.309;0.178;14.54;-0.019;-0.099;-68.31;0.446;
1;6;2.500;0.000;-3.600;σ_2,m;0.486;0.016;-5.38;-0.010;-0.455;85.30;0.016;0.003;-16.58;0.036;
1;279;15.000;4.000;-3.600;σ_2,m;-0.218;-1.505;-74.58;1.309;0.178;14.54;-0.019;-0.099;-68.31;0.446;
1;249;0.000;4.000;-3.600;τ_max;-0.194;-1.632;74.10;1.456;0.158;-15.23;-0.017;-0.089;68.05;0.453;
1;150;12.500;2.000;-3.600;τ_max;0.325;0.289;86.30;-0.314;-0.328;-9.20;-0.002;-0.013;89.87;0.000;
Total;;;;;;0.533;0.345;89.86;1.456;0.178;89.91;0.016;0.003;89.99;0.453;
1;;;;;;-0.218;-1.635;-89.76;-0.353;-0.583;-90.00;-0.019;-0.099;-90.00;0.000;
;;;;;;;;;;;;;;;;
;Total max/min values with corresponding values;;;;;;;;;;;;;;;
1;16;7.500;0.000;-3.600;σ_1,+;0.533;0.016;0.82;-0.015;-0.583;-89.25;0.001;-0.025;89.99;0.016;
1;279;15.000;4.000;-3.600;σ_1,+;-0.218;-1.505;-74.58;1.309;0.178;14.54;-0.019;-0.099;-68.31;0.446;
1;142;8.500;2.000;-3.600;σ_2,+;0.397;0.345;3.92;-0.353;-0.441;-87.53;-0.004;-0.022;-89.62;0.009;
1;1;0.000;0.000;-3.600;σ_2,+;-0.190;-1.635;-73.49;1.451;0.155;15.99;-0.017;-0.093;-68.98;0.437;
1;249;0.000;4.000;-3.600;σ_1,-;-0.194;-1.632;74.10;1.456;0.158;-15.23;-0.017;-0.089;68.05;0.453;
1;142;8.500;2.000;-3.600;σ_1,-;0.397;0.345;3.92;-0.353;-0.441;-87.53;-0.004;-0.022;-89.62;0.009;
1;279;15.000;4.000;-3.600;σ_2,-;-0.218;-1.505;-74.58;1.309;0.178;14.54;-0.019;-0.099;-68.31;0.446;
1;16;7.500;0.000;-3.600;σ_2,-;0.533;0.016;0.82;-0.015;-0.583;-89.25;0.001;-0.025;89.99;0.016;
1;6;2.500;0.000;-3.600;σ_1,m;0.486;0.016;-5.38;-0.010;-0.455;85.30;0.016;0.003;-16.58;0.036;
1;279;15.000;4.000;-3.600;σ_1,m;-0.218;-1.505;-74.58;1.309;0.178;14.54;-0.019;-0.099;-68.31;0.446;
1;6;2.500;0.000;-3.600;σ_2,m;0.486;0.016;-5.38;-0.010;-0.455;85.30;0.016;0.003;-16.58;0.036;
1;279;15.000;4.000;-3.600;σ_2,m;-0.218;-1.505;-74.58;1.309;0.178;14.54;-0.019;-0.099;-68.31;0.446;
1;249;0.000;4.000;-3.600;τ_max;-0.194;-1.632;74.10;1.456;0.158;-15.23;-0.017;-0.089;68.05;0.453;
1;150;12.500;2.000;-3.600;τ_max;0.325;0.289;86.30;-0.314;-0.328;-9.20;-0.002;-0.013;89.87;0.000;
;;;;;;;;;;;;;;;;
Total;;;;;;0.533;0.345;89.86;1.456;0.178;89.91;0.016;0.003;89.99;0.453;
max/min;;;;;;-0.218;-1.635;-89.76;-0.353;-0.583;-90.00;-0.019;-0.099;-90.00;0.000;
